LAMMPS (3 Mar 2020)
include "system.in.init"
units metal
atom_style full
bond_style harmonic
angle_style harmonic
dihedral_style opls
improper_style harmonic
pair_style hybrid/overlay lj/cut/coul/long 11.0 11.0 eam
special_bonds lj/coul 0.0 0.0 0.5
kspace_style pppm 0.0001
read_data "system.data"
  orthogonal box = (-10 -10 -10) to (40 40 40)
  2 by 2 by 7 MPI processor grid
  reading atoms ...
  1473 atoms
  scanning bonds ...
  2 = max bonds/atom
  scanning angles ...
  1 = max angles/atom
  reading bonds ...
  662 bonds
  reading angles ...
  331 angles
  2 = max # of 1-2 neighbors
  1 = max # of 1-3 neighbors
  1 = max # of 1-4 neighbors
  2 = max # of special neighbors
  special bonds CPU = 0.0154533 secs
  read_data CPU = 0.0452926 secs
include "system.in.settings"
pair_coeff 1 1 eam Cu_u6.eam
Reading potential file Cu_u6.eam with DATE: 2007-06-11
pair_coeff 2 2 lj/cut/coul/long 0.0067387957 3.16557
pair_coeff 3 3 lj/cut/coul/long 0.0 0.0
pair_coeff 2 3 lj/cut/coul/long 0.0 0.0
pair_coeff 1 2 lj/cut/coul/long 0.2 3.16557
pair_coeff 1 3 lj/cut/coul/long 0.0 0.0
bond_coeff 1 24.0296134082 1.0
angle_coeff 1 1.9847618221 109.47

group gFix id <= 192
192 atoms in group gFix
group gMobile id > 192
1281 atoms in group gMobile

timestep 0.001
thermo_style custom step temp pe etotal press time
thermo 1000
compute mobileTemp gMobile temp
thermo_modify temp mobileTemp
WARNING: Temperature for thermo pressure is not for group all (../thermo.cpp:485)

velocity gMobile create 300.0 134113
fix  fxnvt gMobile nvt temp 300.0 300.0 0.1
dump d1 all custom 1000 system.lammpstrj id mol type x y z vx vy vz
run  1000000
PPPM initialization ...
  using 12-bit tables for long-range coulomb (../kspace.cpp:332)
  G vector (1/distance) = 0.218434
  grid = 18 18 18
  stencil order = 5
  estimated absolute RMS force accuracy = 0.000936613
  estimated relative force accuracy = 6.50442e-05
  using double precision KISS FFT
  3d grid and FFT values/proc = 1764 270
WARNING: Using a manybody potential with bonds/angles/dihedrals and special_bond exclusions (../pair.cpp:226)
Neighbor list info ...
  update every 1 steps, delay 10 steps, check yes
  max neighbors/atom: 2000, page size: 100000
  master list distance cutoff = 13
  ghost atom cutoff = 13
  binsize = 6.5, bins = 8 8 8
  3 neighbor lists, perpetual/occasional/extra = 3 0 0
  (1) pair lj/cut/coul/long, perpetual, skip from (3)
      attributes: half, newton on
      pair build: skip
      stencil: none
      bin: none
  (2) pair eam, perpetual, skip from (3)
      attributes: half, newton on
      pair build: skip
      stencil: none
      bin: none
  (3) neighbor class addition, perpetual
      attributes: half, newton on
      pair build: half/bin/newton
      stencil: half/bin/3d/newton
      bin: standard
Per MPI rank memory allocation (min/avg/max) = 9.342 | 10.11 | 10.83 Mbytes
Step Temp PotEng TotEng Press Time 
       0          300   -1684.1916   -1634.5557   -3497.3833            0 
    1000    303.13702   -1853.7253   -1803.5704   -664.30803            1 
    2000    305.58874   -1892.0954   -1841.5348   -1030.1827            2 
    3000      291.704    -1917.888   -1869.6247   -913.85754            3 
    4000    314.68065   -1953.8524   -1901.7875   -881.07218            4 
    5000    315.49619   -1965.6718    -1913.472   -1194.2042            5 
    6000    306.36741   -1978.1272   -1927.4377   -1549.8467            6 
    7000    300.96417   -1989.5264    -1939.731   -1020.8165            7 
    8000    297.71756    -1995.814   -1946.5557   -1369.4539            8 
    9000    294.40898   -1998.0153   -1949.3044   -1345.4463            9 
   10000    294.62233   -2005.1021    -1956.356   -1232.0544           10 
   11000    303.88601   -2008.4301   -1958.1512   -1256.1228           11 
   12000    290.96783   -2010.7494   -1962.6079   -1460.9013           12 
   13000    302.24078   -2011.7128   -1961.7061   -1373.8389           13 
   14000    294.72297    -2013.285   -1964.5222   -1755.5724           14 
   15000    304.19924   -2014.9154   -1964.5847   -1299.8954           15 
   16000    296.76374   -2015.3821   -1966.2817   -1457.7225           16 
   17000    291.15632   -2017.1286    -1968.956   -1733.7687           17 
   18000    293.29198   -2019.0251   -1970.4991   -1167.9611           18 
   19000    288.71365   -2016.2999   -1968.5314   -1804.7075           19 
   20000    295.88808   -2022.3373   -1973.3817    -1309.321           20 
   21000    303.30316   -2021.8574    -1971.675   -1666.3316           21 
   22000    294.82253   -2022.3958   -1973.6166   -1475.4531           22 
   23000    299.96295   -2020.8874   -1971.2577   -1469.1319           23 
   24000    304.21967   -2023.8149   -1973.4808   -1507.6302           24 
   25000    285.48233   -2022.4606   -1975.2267   -1616.8873           25 
   26000    290.28501   -2024.2112   -1976.1827   -1756.7979           26 
   27000    303.77205   -2026.0454   -1975.7854   -1529.2117           27 
   28000    305.41875   -2024.1567   -1973.6243   -1492.5296           28 
   29000    305.38694   -2028.5369   -1978.0097   -1366.4353           29 
   30000    298.14248   -2028.8525   -1979.5239   -1249.1725           30 
   31000    296.16764   -2029.2088    -1980.207   -1519.6355           31 
   32000    301.72515   -2029.0082   -1979.0869   -1545.4095           32 
   33000    306.90796   -2028.6304   -1977.8516   -1774.5176           33 
   34000    300.82483   -2029.4258   -1979.6534   -1674.7321           34 
   35000    301.08803   -2030.6105   -1980.7946   -1416.6828           35 
   36000    300.14219    -2028.355   -1978.6956   -2041.6202           36 
   37000    301.16492   -2029.9897    -1980.161   -1509.9969           37 
   38000    298.43384   -2028.5808    -1979.204   -1501.7062           38 
   39000    299.79215   -2026.3467   -1976.7452   -1574.7096           39 
   40000    302.43098    -2029.533   -1979.4949   -1060.2924           40 
   41000    303.62202   -2031.0029   -1980.7677   -1770.0167           41 
   42000    290.23377   -2030.4565   -1982.4364   -1425.0759           42 
   43000    294.29996   -2027.9184   -1979.2255   -1743.1859           43 
   44000    295.90924   -2032.7903   -1983.8313   -1862.3979           44 
   45000    299.85325   -2028.8265   -1979.2149    -1537.989           45 
   46000    292.08042   -2030.0228   -1981.6972    -1395.314           46 
   47000    304.16791   -2030.4525    -1980.127    -2080.277           47 
   48000    295.66917   -2034.1911   -1985.2718   -1776.0934           48 
   49000    307.30554   -2035.0016    -1984.157   -1795.9261           49 
   50000    293.67862   -2036.5327   -1987.9427     -1389.74           50 
   51000     304.6846   -2033.7502   -1983.3392    -1603.352           51 
   52000     296.2526   -2036.8732   -1987.8573   -1601.2064           52 
   53000    291.03355   -2035.1459   -1986.9935   -1605.2818           53 
   54000    295.95776   -2034.7438   -1985.7767   -1769.3087           54 
   55000    291.62784   -2036.3333   -1988.0826   -1664.0794           55 
   56000    308.51266    -2034.461   -1983.4167   -1555.5838           56 
   57000    307.68479   -2038.5387   -1987.6313   -1205.4237           57 
   58000    312.18551   -2033.5417   -1981.8897   -1462.3727           58 
   59000    290.76215   -2036.8211   -1988.7137   -1829.9227           59 
   60000    311.95406   -2035.0605   -1983.4468   -1589.8983           60 
   61000    300.25905   -2038.8384   -1989.1597   -1482.2497           61 
   62000    289.88616    -2036.893   -1988.9305   -1355.3873           62 
   63000    293.97366   -2035.2837   -1986.6449   -1683.6818           63 
   64000    290.35063   -2037.9416   -1989.9022   -1284.2997           64 
   65000    295.08628   -2038.0592   -1989.2363   -1844.8901           65 
   66000    309.46619   -2037.3249   -1986.1228   -1392.1827           66 
   67000    300.72066   -2036.2122   -1986.4571   -1667.0898           67 
   68000    298.71718    -2036.219   -1986.7953   -1360.3728           68 
   69000     297.7107   -2037.9913   -1988.7342   -1792.4174           69 
   70000    300.51694   -2036.8508   -1987.1294   -1689.9435           70 
   71000    313.15726   -2038.4263   -1986.6135   -1489.2417           71 
   72000    294.46848   -2037.9268   -1989.2061   -1606.9373           72 
   73000    301.61899    -2039.929   -1990.0252   -1703.8224           73 
   74000     291.0877   -2038.3041   -1990.1428   -1499.4518           74 
   75000    298.61121   -2038.2069   -1988.8008   -1373.9799           75 
   76000    290.76323   -2040.7215   -1992.6138   -1390.4586           76 
   77000    298.89023   -2040.3071   -1990.8548    -1737.807           77 
   78000    299.37906   -2040.3567   -1990.8235   -1623.9779           78 
   79000    296.82041   -2040.5988   -1991.4889   -1430.2532           79 
   80000    291.98745   -2041.8787   -1993.5685   -1501.0366           80 
   81000    314.52121   -2041.5136   -1989.4752   -1537.4833           81 
   82000    304.96342    -2041.145   -1990.6879    -1307.092           82 
   83000    310.31712   -2039.2518    -1987.909   -2091.8259           83 
   84000    298.61104   -2042.3112   -1992.9051   -1596.5932           84 
   85000    303.76882   -2038.4467   -1988.1872   -1616.1078           85 
   86000    306.78471   -2042.4644    -1991.706   -1588.3444           86 
   87000    289.28377   -2038.1314   -1990.2685   -1120.0897           87 
   88000    302.97661   -2042.4571   -1992.3287   -1287.9604           88 
   89000     290.7788   -2042.6035   -1994.4933    -1341.512           89 
   90000    306.39788    -2045.563   -1994.8686   -1715.4425           90 
   91000    306.83817    -2043.759   -1992.9917   -1814.5349           91 
   92000    302.57587   -2043.0075   -1992.9455   -1430.9791           92 
   93000     298.6536   -2044.5199   -1995.1068   -1547.0542           93 
   94000    304.20166   -2042.3581   -1992.0271   -1567.1651           94 
   95000    315.06628   -2042.7496   -1990.6209   -1437.2475           95 
   96000    285.43938   -2042.7591   -1995.5323   -1228.7337           96 
   97000    303.14818    -2041.409   -1991.2523   -1512.4177           97 
   98000    288.51336   -2042.3422   -1994.6068   -1370.2994           98 
   99000     288.6287   -2042.7061   -1994.9517   -1587.4014           99 
  100000    308.82967   -2042.9887   -1991.8919   -1362.8075          100 
  101000     306.6194   -2042.4513   -1991.7202   -1396.3121          101 
  102000    292.83075   -2041.7288   -1993.2791    -2032.612          102 
  103000    296.80534   -2045.6743   -1996.5669   -1564.3791          103 
  104000    294.42363   -2044.5284   -1995.8151   -1579.2752          104 
  105000    289.75111   -2043.2011   -1995.2609   -1584.0031          105 
  106000    305.86705   -2041.5567   -1990.9501   -1764.6892          106 
  107000    297.76512   -2045.0156   -1995.7495   -1276.0733          107 
  108000    299.75076   -2043.8121   -1994.2174   -1601.0426          108 
  109000    293.17023   -2044.9723   -1996.4664   -1598.2527          109 
  110000    287.35039    -2044.599    -1997.056   -1686.5452          110 
  111000    290.81087   -2041.7766    -1993.661   -1283.0447          111 
  112000    295.28407   -2044.7371   -1995.8815   -1410.6512          112 
  113000    302.62375   -2046.4965   -1996.4265   -1340.0756          113 
  114000    308.63753    -2044.233    -1993.168   -1851.3639          114 
  115000    290.17993   -2046.8084   -1998.7973   -1396.7353          115 
  116000    301.67464   -2046.1124   -1996.1994   -1893.9107          116 
  117000    299.05951   -2046.0021   -1996.5219   -1494.8662          117 
  118000    308.25847   -2045.2257   -1994.2234   -1320.7492          118 
  119000    283.19684   -2047.1737   -2000.3179   -1565.6158          119 
  120000    298.46519   -2043.7909    -1994.409   -1673.2494          120 
  121000    292.04358   -2045.3949   -1997.0755   -1725.7138          121 
  122000    306.46669   -2045.3732   -1994.6674   -1545.4159          122 
  123000    299.44652   -2043.7457   -1994.2013    -1895.378          123 
  124000    309.26689   -2043.6496   -1992.4804   -1582.3851          124 
  125000    287.43939   -2044.6892   -1997.1315   -1314.2075          125 
  126000    306.37318   -2044.9473   -1994.2569   -1625.5537          126 
  127000    298.29875   -2045.3267   -1995.9723   -1513.5283          127 
  128000    298.93554   -2044.6983   -1995.2386   -1712.2318          128 
  129000    291.50676   -2043.5232   -1995.2925   -1710.1174          129 
  130000    306.60442   -2047.2954   -1996.5668   -1214.4578          130 
  131000    306.38599   -2047.1207   -1996.4282   -1504.0876          131 
  132000    296.29085   -2047.1556   -1998.1333   -1720.3238          132 
  133000    317.97033   -2048.6756   -1996.0664   -1841.5703          133 
  134000    292.35817   -2047.2144   -1998.8429   -1468.0493          134 
  135000    312.76941   -2046.0821   -1994.3335   -1070.4498          135 
  136000    302.18824   -2045.1086   -1995.1106   -1585.6825          136 
  137000    305.82437   -2046.2533   -1995.6537   -1573.7433          137 
  138000    305.12899   -2047.2008   -1996.7163   -1195.3812          138 
  139000    305.49694   -2046.4638   -1995.9184    -1729.405          139 
  140000    303.98685   -2046.4829   -1996.1874   -1433.5765          140 
  141000    291.22071   -2047.2401   -1999.0567   -1520.2924          141 
  142000    305.06621   -2046.1363   -1995.6621   -1801.3097          142 
  143000    293.53626   -2048.3069   -1999.7405     -1364.73          143 
  144000    299.42302   -2044.9612   -1995.4207   -1053.1435          144 
  145000       286.49    -2045.873   -1998.4723   -1404.2257          145 
  146000    301.88879   -2044.7647   -1994.8163   -1776.6498          146 
  147000    293.59344    -2049.264   -2000.6881   -996.64671          147 
  148000    297.73275   -2045.2351   -1995.9744   -1594.6026          148 
  149000    301.23202   -2047.7416   -1997.9019   -1249.4695          149 
  150000    301.00898    -2045.313   -1995.5101   -1488.0674          150 
  151000     317.0554   -2047.0493   -1994.5915   -1263.0011          151 
  152000    297.62856   -2047.9976    -1998.754   -1482.9739          152 
  153000    291.74082   -2046.6125   -1998.3431   -1203.6309          153 
  154000     303.4893    -2045.482   -1995.2687   -1612.3056          154 
  155000    292.81467   -2047.7535   -1999.3064   -1943.8748          155 
  156000    293.65554   -2044.4959   -1995.9097   -1636.2718          156 
  157000    292.39061    -2047.181   -1998.8041   -1656.7326          157 
  158000    297.62913   -2048.4766    -1999.233   -1469.3095          158 
  159000     306.3134   -2046.9799   -1996.2994   -1594.3214          159 
  160000    303.84509   -2047.3855   -1997.1134   -1600.0541          160 
  161000    290.93996   -2046.6897   -1998.5528   -1397.3444          161 
  162000    294.09036   -2045.4274   -1996.7693   -1611.6963          162 
  163000    318.84097   -2045.9702    -1993.217   -1133.6552          163 
  164000    304.81676   -2048.2151   -1997.7823   -1694.7095          164 
  165000    297.12526   -2047.4349   -1998.2746   -1625.9642          165 
  166000    301.34149   -2049.7824   -1999.9245   -1369.2091          166 
  167000    295.63448   -2047.5356   -1998.6219   -1082.3708          167 
  168000    310.81481    -2047.153   -1995.7277   -1456.2932          168 
  169000    294.38702   -2046.9351   -1998.2279   -1537.2948          169 
  170000    302.81195   -2048.5135   -1998.4123   -1789.4422          170 
  171000    295.28271   -2046.8135   -1997.9581   -1118.6689          171 
  172000    300.09481   -2047.3286    -1997.677   -1478.6141          172 
  173000     302.6583   -2048.8015   -1998.7258    -1641.009          173 
  174000    297.04673   -2049.4424   -2000.2952   -1670.2243          174 
  175000    292.49197   -2049.8587    -2001.465   -1624.5301          175 
  176000    304.75665   -2050.1393   -1999.7164   -1236.9884          176 
  177000    310.69559   -2048.7888   -1997.3833   -1601.7213          177 
  178000    289.54935   -2049.9452   -2002.0384   -1937.8549          178 
  179000    301.99377   -2050.5729   -2000.6072   -1612.4162          179 
  180000     279.4817   -2050.1929   -2003.9518   -1582.6283          180 
  181000    303.13643   -2049.5953   -1999.4405   -1015.0014          181 
  182000    307.92335    -2048.899   -1997.9522   -1204.2968          182 
  183000    301.45569   -2048.5071   -1998.6303   -1419.2789          183 
  184000    297.39144   -2048.7013    -1999.497   -1625.5613          184 
  185000    296.78915   -2049.4854   -2000.3807   -1344.7602          185 
  186000    308.47854   -2049.3094   -1998.2707   -1398.3671          186 
  187000    290.00545   -2048.8016   -2000.8194   -1745.3132          187 
  188000    294.37367   -2049.9084   -2001.2034   -1755.3328          188 
  189000    308.27454   -2049.7062   -1998.7013   -1308.9018          189 
  190000    305.16362   -2050.8229   -2000.3326   -1658.9542          190 
  191000    299.66445   -2049.8827   -2000.3023   -1554.2639          191 
  192000    304.94765   -2051.8981   -2001.4436   -1715.6554          192 
  193000    301.92863   -2048.0789   -1998.1239   -1539.2703          193 
  194000    304.36209    -2050.663   -2000.3053   -1571.2241          194 
  195000    299.93067   -2050.2907   -2000.6662   -1572.1835          195 
  196000     303.4305   -2050.5708   -2000.3673   -1690.3356          196 
  197000    310.36941   -2049.0641   -1997.7125   -1576.0608          197 
  198000    297.67495   -2050.7718   -2001.5206   -1702.1199          198 
  199000    294.50755   -2050.7255   -2001.9984   -1308.0413          199 
  200000    316.94574   -2049.5722   -1997.1326    -1552.468          200 
  201000    292.08341    -2050.513   -2002.1869   -1425.8955          201 
  202000    294.84759   -2051.4603   -2002.6769   -1607.4725          202 
  203000    303.54963   -2049.9052    -1999.682   -1458.0615          203 
  204000    290.63562   -2048.6289   -2000.5424   -1350.0117          204 
  205000    304.81348   -2050.4531   -2000.0208   -1478.4878          205 
  206000    298.30709   -2049.0031   -1999.6473    -1532.721          206 
  207000    300.63574   -2045.9882   -1996.2471   -1561.3718          207 
  208000    288.31639   -2049.1948    -2001.492   -1416.7501          208 
  209000    299.08299   -2049.1252    -1999.641   -1558.2768          209 
  210000    303.17381   -2051.2919   -2001.1309   -1737.2338          210 
  211000    301.01836   -2049.9499   -2000.1455   -1453.1348          211 
  212000    300.51247   -2053.9794   -2004.2587   -1278.5231          212 
  213000    296.93164   -2051.9693   -2002.8411   -1597.1556          213 
  214000    309.09675    -2048.763    -1997.622   -1323.2176          214 
  215000    303.35328   -2052.2223   -2002.0316   -1357.6908          215 
  216000    288.71731   -2049.1557   -2001.3866   -2107.3723          216 
  217000    287.80754   -2051.0112   -2003.3926   -1447.2407          217 
  218000    304.39089   -2051.5074    -2001.145   -1406.0063          218 
  219000     291.0323   -2052.0582    -2003.906   -1329.9232          219 
  220000    296.54455   -2051.6776   -2002.6134   -1498.0018          220 
  221000    304.79135   -2051.0577   -2000.6291   -1345.5252          221 
  222000    300.86995   -2052.7552   -2002.9754   -1524.9482          222 
  223000    298.38947   -2050.1528   -2000.7834   -1725.8949          223 
  224000    297.52303   -2051.0328   -2001.8068   -1794.0645          224 
  225000    296.31456   -2052.6946   -2003.6684   -1427.0405          225 
  226000    307.23706   -2051.6163    -2000.783   -1367.2455          226 
  227000    303.66581   -2046.9493   -1996.7069   -1363.8845          227 
  228000    294.73961   -2051.6878   -2002.9222   -1372.4119          228 
  229000    301.29622    -2052.705   -2002.8547   -1439.8261          229 
  230000    299.68594   -2049.7938   -2000.2099   -1785.3156          230 
  231000     298.5572   -2051.4247   -2002.0275   -1128.2546          231 
  232000    294.50454    -2053.859   -2005.1323   -1466.9166          232 
  233000     297.3924   -2050.8681   -2001.6637   -1405.6528          233 
  234000    300.37488    -2049.188   -1999.4901   -1415.0295          234 
  235000     295.4868   -2052.7236   -2003.8344   -1398.6884          235 
  236000    295.75949   -2052.5185   -2003.5842   -1561.6031          236 
  237000    295.91987   -2051.8099   -2002.8491   -1540.2568          237 
  238000    298.62703   -2051.3192   -2001.9104   -1614.7998          238 
  239000    301.40469    -2050.197   -2000.3287   -2013.6052          239 
  240000    292.58472   -2052.3528   -2003.9438   -1050.7419          240 
  241000    307.99946   -2053.8594   -2002.8999   -1233.3496          241 
  242000    300.48587   -2055.2608   -2005.5445    -1805.495          242 
  243000    300.04733   -2052.3187   -2002.6749   -1296.5011          243 
  244000    308.77251   -2052.7915   -2001.7042   -1373.5228          244 
  245000    294.77402   -2053.2191   -2004.4479   -1644.6984          245 
  246000    309.44069    -2053.133   -2001.9351   -1575.6694          246 
  247000    296.34949   -2055.6037   -2006.5718   -1566.5802          247 
  248000    298.88049   -2052.2948   -2002.8441   -1865.6475          248 
  249000    301.10793   -2052.5478   -2002.7286   -1267.3742          249 
  250000    303.08532   -2054.4313   -2004.2849   -1147.9339          250 
  251000     302.3947   -2055.3087   -2005.2766   -1740.0069          251 
  252000    303.77546   -2051.8662   -2001.6056   -1906.1105          252 
  253000    294.62089   -2053.5424   -2004.7965   -1686.0419          253 
  254000    297.52448   -2052.3622   -2003.1359   -1563.2588          254 
  255000    304.27622   -2054.8891   -2004.5457   -1550.1017          255 
  256000    297.22001   -2053.5043   -2004.3283   -1874.5168          256 
  257000    303.79508   -2051.9838     -2001.72   -1494.2499          257 
  258000    304.18128   -2054.2181   -2003.8904   -645.63117          258 
  259000    305.44967   -2052.2735   -2001.7359   -1495.5355          259 
  260000    295.87901   -2054.0144   -2005.0604    -1688.371          260 
  261000    297.22939   -2054.0781   -2004.9006   -1474.9061          261 
  262000    297.75762   -2052.6498   -2003.3849   -1642.5687          262 
  263000    302.04908   -2055.2472   -2005.2723   -1883.4294          263 
  264000      295.217   -2055.8454   -2007.0008   -1600.7918          264 
  265000      301.662    -2054.831   -2004.9202    -1534.744          265 
  266000    306.66444   -2055.9732   -2005.2346    -1594.898          266 
  267000    287.81793   -2053.8364   -2006.2161   -1335.2326          267 
  268000    300.32596   -2053.6959   -2004.0061   -1449.0493          268 
  269000    301.00412   -2052.6932   -2002.8912   -1520.7224          269 
  270000    294.56693   -2055.8023   -2007.0654   -1309.9761          270 
  271000    310.34133    -2052.009   -2000.6621    -1629.811          271 
  272000    296.86674   -2054.9661   -2005.8486   -1299.1838          272 
  273000    302.47424    -2056.687   -2006.6418   -1519.9184          273 
  274000    308.10784   -2054.1643   -2003.1869   -1647.1384          274 
  275000    300.14484   -2052.9298   -2003.2699   -1201.0077          275 
  276000    308.27969   -2053.9002   -2002.8944   -1234.8245          276 
  277000    298.69187   -2053.2486   -2003.8292   -1759.9126          277 
  278000    285.95262   -2053.7948   -2006.4831   -1458.3482          278 
  279000    300.55876   -2054.7003   -2004.9719   -1513.2575          279 
  280000    308.62388   -2055.2766   -2004.2139   -1232.1329          280 
  281000    288.47633   -2053.2333    -2005.504   -1835.5669          281 
  282000    284.67963   -2053.4948   -2006.3937   -2012.4621          282 
  283000    299.89224    -2055.599   -2005.9809   -1671.9764          283 
  284000    304.36947   -2054.7062   -2004.3473   -1298.8458          284 
  285000    284.58143   -2055.0141   -2007.9292   -1587.1889          285 
  286000    302.70324   -2053.4525   -2003.3694   -1877.9657          286 
  287000    311.11815   -2052.0494   -2000.5739   -1789.9535          287 
  288000    303.78795   -2053.7687   -2003.5061   -1460.2143          288 
  289000    293.68668   -2054.6233   -2006.0319   -1490.8056          289 
  290000    302.35368   -2053.8925   -2003.8672   -1847.1092          290 
  291000    291.35298   -2055.5872    -2007.382   -1446.0873          291 
  292000    308.83335   -2055.6943   -2004.5969   -1603.1261          292 
  293000    291.06479   -2053.0609   -2004.9034    -1680.009          293 
  294000    307.43439   -2053.9789    -2003.113   -1655.8737          294 
  295000    298.55291   -2055.2369   -2005.8404   -1646.4951          295 
  296000    288.39119    -2054.174   -2006.4588   -1611.4654          296 
  297000    302.00025   -2052.9825   -2003.0157   -1661.3003          297 
  298000    303.88277   -2054.9917   -2004.7134    -1149.761          298 
  299000    285.51002   -2054.2573   -2007.0188   -1689.4053          299 
  300000    302.36822   -2054.2045   -2004.1768   -1838.3867          300 
  301000    306.00215   -2054.3679   -2003.7389   -1285.7478          301 
  302000    287.79326   -2053.8467   -2006.2305   -1200.5458          302 
  303000    293.10995   -2052.4773   -2003.9814   -1720.5463          303 
  304000    297.77538   -2054.8036   -2005.5357   -1635.6178          304 
  305000    294.51487   -2053.5306   -2004.8023   -1795.5774          305 
  306000    288.19456   -2056.5414   -2008.8588   -1634.4286          306 
  307000       297.97   -2054.2735   -2004.9735   -1494.4299          307 
  308000    313.57235   -2053.9558   -2002.0743   -1443.4161          308 
  309000    306.18803   -2053.5547    -2002.895   -1352.1908          309 
  310000    299.49329   -2053.7045   -2004.1525    -1758.938          310 
  311000    298.80108   -2056.4153   -2006.9778   -1380.7099          311 
  312000    312.60123   -2055.1609   -2003.4401   -1680.3444          312 
  313000    290.57031   -2053.1929   -2005.1172   -1911.3828          313 
  314000    293.74125    -2055.375   -2006.7746   -1741.2264          314 
  315000    287.89648   -2054.6134   -2006.9801   -1443.8044          315 
  316000    308.25632   -2054.6643   -2003.6623   -1871.4803          316 
  317000    300.17984   -2054.1944   -2004.5288   -1743.2036          317 
  318000    304.52541   -2054.0696   -2003.6849   -1848.7011          318 
  319000    301.28831   -2056.4087   -2006.5597   -1593.0019          319 
  320000    299.69616   -2054.4498   -2004.8642   -1313.5196          320 
  321000    298.18693   -2054.3155   -2004.9796   -1475.6655          321 
  322000    298.92047   -2056.0104   -2006.5531   -1454.0076          322 
  323000    297.39374   -2055.7846   -2006.5799   -1698.3896          323 
  324000    284.86915   -2054.1209   -2006.9884   -1431.0556          324 
  325000    302.25572   -2054.2347   -2004.2256    -1269.067          325 
  326000    301.62577   -2054.2604   -2004.3555   -1567.8579          326 
  327000    309.51936   -2056.3808   -2005.1699   -1555.9242          327 
  328000     304.1134   -2054.1044   -2003.7879   -1353.2123          328 
  329000    303.96635   -2055.7669   -2005.4748   -1296.1864          329 
  330000    299.05713   -2054.7297   -2005.2498   -1520.6073          330 
  331000     297.2856   -2055.1621   -2005.9753   -1060.1366          331 
  332000    288.53203   -2055.2154   -2007.4769    -1400.573          332 
  333000     306.8897   -2054.3175   -2003.5417   -1193.7077          333 
  334000     303.6704   -2056.6567   -2006.4135   -1572.8078          334 
  335000    292.79161   -2055.4705   -2007.0273   -1638.6846          335 
  336000    299.32422   -2054.4712   -2004.9471   -1867.7632          336 
  337000    303.44835   -2055.9798   -2005.7734   -1247.0628          337 
  338000    307.40925   -2052.5321   -2001.6703   -1590.4547          338 
  339000    292.39322   -2054.0786   -2005.7013   -1530.7286          339 
  340000    296.48737   -2054.2273   -2005.1725   -1760.5334          340 
  341000    295.04336   -2055.7824   -2006.9666   -1236.4209          341 
  342000    292.26572   -2054.2437   -2005.8875   -1466.2548          342 
  343000    307.84712   -2053.4317   -2002.4975      -1585.6          343 
  344000    294.69896    -2055.625   -2006.8662   -1364.1145          344 
  345000     300.1142    -2053.879   -2004.2242   -1333.8141          345 
  346000    298.82617   -2051.9288   -2002.4871   -1278.2858          346 
  347000    308.91633   -2055.3433   -2004.2322    -1766.151          347 
  348000     291.3583   -2054.1405   -2005.9344   -1811.6614          348 
  349000     297.9578   -2054.9153   -2005.6173    -1496.044          349 
  350000    299.72048    -2055.346   -2005.7563   -1057.7529          350 
  351000    312.00401   -2052.7346   -2001.1126     -2552.61          351 
  352000    295.13497   -2055.7266   -2006.8956    -1425.188          352 
  353000    307.52685   -2053.9547   -2003.0735   -973.43976          353 
  354000    303.67586   -2055.9391    -2005.695   -1645.1242          354 
  355000    304.95244   -2055.7728   -2005.3175   -1566.6985          355 
  356000    305.35195   -2055.4686   -2004.9472   -1523.4202          356 
  357000     296.7188   -2055.7245   -2006.6315    -1391.846          357 
  358000    292.46572   -2058.0002   -2009.6108     -1234.08          358 
  359000    297.96884   -2055.7105   -2006.4107   -1051.7379          359 
  360000     304.6969     -2052.67    -2002.257   -1297.7845          360 
  361000    297.37362   -2056.1885   -2006.9871   -1220.5398          361 
  362000    317.97462   -2055.7622   -2003.1524   -1489.8073          362 
  363000    301.23626   -2055.8721   -2006.0316    -1579.937          363 
  364000    288.27922   -2057.1501   -2009.4534   -1527.1077          364 
  365000    287.26262   -2055.1783   -2007.6499   -1578.5541          365 
  366000    298.48121   -2054.0533   -2004.6687   -1590.7683          366 
  367000    306.04804   -2056.4317   -2005.7952   -1348.4669          367 
  368000    301.74721   -2057.4201   -2007.4951    -1671.868          368 
  369000    293.58476   -2052.7929   -2004.2185    -1711.879          369 
  370000    298.25747   -2056.9189   -2007.5713   -1675.5136          370 
  371000    294.89258   -2053.6929    -2004.902   -1108.2505          371 
  372000    303.61343   -2055.1132   -2004.8795   -1477.1768          372 
  373000    294.18717   -2057.4258   -2008.7517   -1534.1012          373 
  374000    302.61774   -2054.6708   -2004.6018   -1249.5358          374 
  375000    303.61993   -2058.8852   -2008.6504    -1138.239          375 
  376000    299.74668   -2055.3242   -2005.7302   -1631.7427          376 
  377000    303.02372   -2057.8813   -2007.7451   -1590.8346          377 
  378000    305.38791   -2056.1901   -2005.6627   -1341.2055          378 
  379000    316.75546   -2055.4338   -2003.0257   -1794.8123          379 
  380000    293.03486   -2055.5054    -2007.022   -1382.2001          380 
  381000    305.34442   -2054.1538   -2003.6337   -1390.0818          381 
  382000    295.42549   -2054.6342   -2005.7551   -1348.8034          382 
  383000    294.88108   -2056.9928   -2008.2039   -1849.0123          383 
  384000    305.17753   -2057.1517   -2006.6591   -1417.9655          384 
  385000    307.30021    -2054.164   -2003.3202   -1605.2056          385 
  386000    292.78103   -2054.3636   -2005.9221   -1276.2931          386 
  387000    306.93896   -2056.6214   -2005.8374   -1837.2832          387 
  388000    288.04989   -2056.2537    -2008.595   -1577.7764          388 
  389000    301.86217   -2055.6165   -2005.6725   -1456.2771          389 
  390000    309.44282   -2057.8413    -2006.643   -1445.7327          390 
  391000    303.27301    -2056.867   -2006.6896   -1721.8093          391 
  392000    298.90427   -2056.4896    -2007.035   -1254.3274          392 
  393000    306.55873   -2055.3013   -2004.5803   -1433.1574          393 
  394000    301.73583   -2055.7526   -2005.8295   -1740.2414          394 
  395000    294.76734   -2057.5169   -2008.7468   -1321.2432          395 
  396000    300.24285   -2054.3467   -2004.6706    -1765.882          396 
  397000    294.50349   -2058.0236   -2009.2972   -1078.2883          397 
  398000    308.09347   -2056.7939   -2005.8189   -1191.7486          398 
  399000    295.89223   -2056.5362   -2007.5799   -1111.2225          399 
  400000    320.59914   -2055.8921    -2002.848   -1748.5636          400 
  401000    300.42941   -2055.8324   -2006.1255   -1595.0615          401 
  402000    298.70599   -2055.9988    -2006.577   -1601.1497          402 
  403000    295.85558   -2058.4373   -2009.4871   -1698.7729          403 
  404000    308.04741   -2056.5038   -2005.5364   -1522.2496          404 
  405000    299.07862   -2060.3339   -2010.8505   -1449.7324          405 
  406000    298.70295   -2055.6351   -2006.2138   -1864.2219          406 
  407000    284.89164   -2057.6885   -2010.5524   -1196.0451          407 
  408000    300.99421   -2056.4308   -2006.6304   -1668.8703          408 
  409000    295.10949   -2055.5509   -2006.7241   -1672.8347          409 
  410000    303.03886   -2057.0142   -2006.8755   -1666.3704          410 
  411000    294.91684   -2057.1383   -2008.3434   -1446.0251          411 
  412000    302.89671   -2055.9929   -2005.8778   -1281.8059          412 
  413000     302.1772   -2056.9994   -2007.0033   -1249.1542          413 
  414000    290.81577   -2055.8891   -2007.7727   -1494.8689          414 
  415000    302.36412   -2055.1124   -2005.0853   -1569.1443          415 
  416000    293.64393   -2055.3496   -2006.7653   -1982.3362          416 
  417000    304.25872   -2056.9854   -2006.6449   -1480.5981          417 
  418000    301.66052   -2057.0693   -2007.1587   -1394.3825          418 
  419000    295.95711   -2056.1667   -2007.1997    -1805.327          419 
  420000    304.89554   -2057.2314   -2006.7856    -1400.385          420 
  421000    292.05285   -2058.2912   -2009.9702   -1591.4671          421 
  422000    291.50218   -2056.5894   -2008.3595   -1326.6794          422 
  423000    300.41824   -2057.7774   -2008.0723   -1184.6266          423 
  424000    303.27195   -2056.0507   -2005.8734   -1405.4786          424 
  425000    288.34881   -2058.0095   -2010.3014   -1460.3326          425 
  426000     307.1839   -2057.0124   -2006.1879   -1400.4079          426 
  427000    302.61572   -2057.3845   -2007.3159   -1249.5133          427 
  428000     300.9714     -2054.84   -2005.0434   -1579.3288          428 
  429000    301.45395   -2059.2856   -2009.4091    -1378.877          429 
  430000    302.15442    -2056.273   -2006.2807   -1481.6742          430 
  431000    294.27568   -2056.8605   -2008.1717   -1496.4306          431 
  432000    295.37926   -2054.7429   -2005.8715   -1359.7424          432 
  433000     305.6614   -2056.3969   -2005.8243   -1347.1584          433 
  434000    301.10424    -2055.594   -2005.7754   -1171.4291          434 
  435000    290.07984   -2055.5121   -2007.5175   -1346.3902          435 
  436000    308.92482   -2054.7992   -2003.6867   -1461.2263          436 
  437000    300.63565   -2056.2244   -2006.4833   -1505.7094          437 
  438000    298.95319   -2056.8714   -2007.4087   -1562.2546          438 
  439000    301.49561   -2056.5776   -2006.6942   -1180.1867          439 
  440000    303.33301   -2058.7097   -2008.5223   -1847.2967          440 
  441000    314.05037   -2057.1216    -2005.161   -1379.1068          441 
  442000     295.5463   -2059.0068   -2010.1078   -1722.9938          442 
  443000    295.96534   -2054.8509   -2005.8826   -1383.4371          443 
  444000    289.93789   -2057.9586   -2009.9875   -1366.8406          444 
  445000    306.19399   -2056.7621   -2006.1014   -1662.7154          445 
  446000    296.60971   -2056.1843   -2007.1093   -1330.4569          446 
  447000     313.2996   -2057.2995   -2005.4631   -1618.9009          447 
  448000    298.24613   -2057.3952   -2008.0495   -1444.6676          448 
  449000    312.26724   -2059.6344   -2007.9689   -1434.0249          449 
  450000    291.05343   -2055.6021   -2007.4464    -1383.376          450 
  451000    301.03133   -2058.3074   -2008.5009   -1758.3345          451 
  452000    281.24515   -2056.6427   -2010.1098   -1642.7529          452 
  453000    298.01618   -2058.8065   -2009.4988   -1259.0974          453 
  454000     295.9043   -2057.5825   -2008.6243   -1477.5896          454 
  455000    295.03053   -2060.2576   -2011.4439   -1782.8404          455 
  456000     299.7169   -2057.9408   -2008.3517   -1389.7642          456 
  457000    315.00517   -2056.8741   -2004.7555   -1484.8982          457 
  458000      309.207   -2058.9893   -2007.8301   -1068.1637          458 
  459000    305.75289   -2058.6074   -2008.0197    -1450.114          459 
  460000    296.14929   -2058.9558    -2009.957   -1461.3626          460 
  461000    306.86102   -2058.5608   -2007.7897   -1115.5593          461 
  462000    312.23106   -2058.5829   -2006.9233   -1610.7322          462 
  463000    296.67155    -2058.257   -2009.1719    -1668.913          463 
  464000    299.42365   -2057.1075    -2007.567   -1158.9974          464 
  465000    300.83279   -2060.7223   -2010.9486   -1169.8376          465 
  466000    302.28562   -2058.2863   -2008.2723   -1903.7077          466 
  467000    305.57058   -2058.6537   -2008.0961   -1079.2804          467 
  468000    307.53055   -2058.3693   -2007.4875   -1650.5882          468 
  469000     295.8469   -2059.5963   -2010.6475   -1103.6432          469 
  470000    301.43052   -2058.2236    -2008.351   -1229.0254          470 
  471000    297.69989   -2057.5225   -2008.2672   -1401.1606          471 
  472000    292.93077   -2058.8872   -2010.4209   -1474.0596          472 
  473000     299.8952   -2058.8147   -2009.1961   -1550.4801          473 
  474000    288.52269   -2059.8822   -2012.1453   -1607.2788          474 
  475000    295.91822   -2056.4222   -2007.4617    -1440.503          475 
  476000    304.92433    -2058.438   -2007.9873   -1545.7275          476 
  477000    307.26422   -2057.6434   -2006.8056   -1746.6861          477 
  478000     311.2019   -2057.3729   -2005.8836   -1607.6164          478 
  479000    301.59141   -2057.5348   -2007.6356   -1124.8098          479 
  480000    304.06686   -2058.7173   -2008.4085   -1665.5998          480 
  481000    291.01488   -2060.0847   -2011.9354   -1871.6976          481 
  482000    290.64218    -2057.839   -2009.7513   -1362.7108          482 
  483000    306.99713   -2058.2609   -2007.4674   -1157.4866          483 
  484000    297.75903   -2059.2024   -2009.9372   -1564.2816          484 
  485000    311.30382   -2059.6359   -2008.1297   -1229.6314          485 
  486000    302.63062   -2058.9742   -2008.9031   -1600.9718          486 
  487000    304.61883   -2062.4247   -2012.0246   -1358.8396          487 
  488000    291.92163   -2058.4301   -2010.1308   -1585.7454          488 
  489000    301.43043   -2060.6264   -2010.7539    -1159.501          489 
  490000    303.81167   -2059.2698   -2009.0032   -1487.0835          490 
  491000    301.40261   -2059.5191   -2009.6511   -1447.1553          491 
  492000    298.51808   -2060.2901   -2010.8994   -1464.3704          492 
  493000    293.38685   -2057.4982   -2008.9564   -1305.1836          493 
  494000      310.232   -2060.1614   -2008.8325   -1113.5887          494 
  495000    301.86806    -2058.229    -2008.284   -2071.6112          495 
  496000    296.09145    -2058.993   -2010.0038   -1748.5817          496 
  497000    302.92689   -2058.0161    -2007.896   -1342.8972          497 
  498000    302.73711   -2059.6349   -2009.5461    -1029.128          498 
  499000    310.43102   -2058.4626   -2007.1009   -1576.8379          499 
  500000    294.62193   -2059.6732   -2010.9271   -1148.4915          500 
  501000     308.6162   -2059.0732   -2008.0117   -1598.8173          501 
  502000    296.19323   -2056.8417   -2007.8357   -1540.0884          502 
  503000    297.49911   -2059.2552   -2010.0331    -1570.278          503 
  504000    302.52414    -2057.559   -2007.5054   -1375.3388          504 
  505000    292.90966   -2059.3371   -2010.8743   -1460.0274          505 
  506000    306.14555   -2058.3486   -2007.6959   -1881.7541          506 
  507000    284.55203   -2056.9045   -2009.8245   -1247.2285          507 
  508000    309.14436    -2059.682   -2008.5331   -1193.8658          508 
  509000    298.98453   -2058.4149   -2008.9471   -1295.8148          509 
  510000    299.79842   -2061.1776    -2011.575    -1850.258          510 
  511000     319.9778   -2057.2946   -2004.3534    -1558.114          511 
  512000    299.53136   -2060.1609   -2010.6025   -1384.0416          512 
  513000    313.00436   -2060.3036   -2008.5161     -1244.41          513 
  514000     297.7679   -2057.6763   -2008.4098   -1756.9863          514 
  515000    306.20068   -2060.3354   -2009.6736   -1332.5342          515 
  516000    295.18618    -2058.678   -2009.8385   -1646.8294          516 
  517000    308.75859   -2059.5725   -2008.4875   -1547.4559          517 
  518000    298.64157   -2058.7736   -2009.3624   -1219.3222          518 
  519000    307.45118   -2059.3276   -2008.4589   -1054.2353          519 
  520000    294.68707   -2057.2142   -2008.4573   -1592.6427          520 
  521000    302.09352   -2058.1404   -2008.1581   -1467.9861          521 
  522000    308.24409   -2058.6196   -2007.6197   -1419.0884          522 
  523000    287.03863    -2059.211   -2011.7196   -1295.3999          523 
  524000    311.89131   -2056.5729   -2004.9696   -1336.8856          524 
  525000    300.44842   -2059.1954   -2009.4853   -1615.5573          525 
  526000    302.71083   -2060.1708   -2010.0864   -1114.8478          526 
  527000    312.05236   -2061.2131   -2009.5831   -1372.1389          527 
  528000    306.56624   -2057.8855   -2007.1632   -1472.3074          528 
  529000    299.85143    -2062.219   -2012.6077   -1190.8929          529 
  530000    296.42318   -2058.6693   -2009.6252   -1485.9425          530 
  531000     296.9462   -2058.0523   -2008.9217   -1330.9776          531 
  532000     307.6872   -2059.1816   -2008.2738   -1536.0468          532 
  533000    302.86234   -2061.1859   -2011.0764   -1557.5621          533 
  534000    307.39442   -2058.0597   -2007.2004   -1866.2808          534 
  535000    305.90216   -2061.4015   -2010.7891   -1303.0477          535 
  536000    306.99381   -2056.6731     -2005.88   -1686.9603          536 
  537000     297.0485   -2059.6732   -2010.5256   -1722.8199          537 
  538000    292.68127   -2059.3887   -2010.9638   -1378.5025          538 
  539000    298.39803   -2060.5877   -2011.2168   -1436.4505          539 
  540000    308.63151    -2056.711    -2005.647    -1618.474          540 
  541000    297.20733    -2059.636   -2010.4621   -1262.6912          541 
  542000    304.40616   -2059.2201   -2008.8552   -1487.1474          542 
  543000    286.36445   -2059.7543   -2012.3744   -1422.1921          543 
  544000     307.1914   -2060.7339   -2009.9082   -1325.5181          544 
  545000    295.86188   -2058.9092    -2009.958   -1466.0026          545 
  546000    292.99914   -2061.1948   -2012.7172   -1804.0832          546 
  547000    304.40359    -2059.272   -2008.9075   -1686.9207          547 
  548000    300.22421    -2061.128    -2011.455   -933.73231          548 
  549000    300.42463   -2061.8718   -2012.1657   -1935.1259          549 
  550000    299.70981   -2059.0841   -2009.4962   -1354.1632          550 
  551000     295.0162   -2058.6604   -2009.8491   -1638.4688          551 
  552000    299.21713   -2058.4635   -2008.9571   -1155.0092          552 
  553000    299.81335   -2058.7549   -2009.1499   -935.50844          553 
  554000    290.08545   -2060.8683   -2012.8728      -1578.8          554 
  555000    307.16584   -2058.9476    -2008.126    -1591.795          555 
  556000    305.39373   -2061.6097   -2011.0814   -1531.5592          556 
  557000    311.04847    -2061.464   -2010.0001   -1715.5353          557 
  558000     297.3464   -2060.7047   -2011.5079    -1584.678          558 
  559000    296.84532   -2061.2778   -2012.1639   -1276.9622          559 
  560000    296.74667   -2057.9321   -2008.8345   -1767.2361          560 
  561000    304.37629   -2059.6856   -2009.3256   -1204.1817          561 
  562000    302.30241   -2061.0112   -2010.9943   -1868.3943          562 
  563000    301.15616   -2061.3797   -2011.5525   -1590.0308          563 
  564000    308.27025    -2059.383   -2008.3788    -1150.854          564 
  565000    304.15708   -2062.6532   -2012.3295   -1451.2084          565 
  566000     289.5141    -2058.345    -2010.444   -1746.0832          566 
  567000    300.04506   -2062.1562   -2012.5128    -1317.853          567 
  568000    299.03922   -2061.1593   -2011.6824   -1125.7261          568 
  569000    297.28533   -2057.7943   -2008.6075   -1514.8759          569 
  570000    288.80685   -2059.6237   -2011.8397   -1115.0563          570 
  571000     303.8493   -2059.5992   -2009.3264   -1885.3689          571 
  572000    284.23831   -2057.6673   -2010.6393   -1595.7892          572 
  573000    304.96366   -2061.0696   -2010.6124   -1610.1684          573 
  574000     300.0789   -2059.7145   -2010.0656   -933.40223          574 
  575000    307.00185   -2059.5121   -2008.7177   -1398.0264          575 
  576000    299.54522   -2060.6599   -2011.0992   -1409.2603          576 
  577000     292.8774   -2062.5035    -2014.046   -1338.2426          577 
  578000    304.70219    -2061.613   -2011.1991   -1424.0489          578 
  579000    291.20004    -2059.418   -2011.2381   -1451.6701          579 
  580000    296.99683   -2059.7374   -2010.5983   -1177.4343          580 
  581000     301.1502   -2061.3367   -2011.5105   -1581.0424          581 
  582000    294.42814   -2060.6353   -2011.9213   -1588.3457          582 
  583000    299.23056   -2061.9755   -2012.4669   -1729.8686          583 
  584000     302.6686   -2059.9156   -2009.8382   -1300.1389          584 
  585000    305.06347   -2064.1209   -2013.6472    -1088.017          585 
  586000    302.82097   -2058.5098   -2008.4071    -1700.777          586 
  587000    303.16904    -2062.054   -2011.8937   -1569.6705          587 
  588000    309.07183   -2062.7322   -2011.5953   -905.59824          588 
  589000     299.6088   -2060.8841   -2011.3129   -1399.2466          589 
  590000    298.57696   -2063.9858   -2014.5854   -1469.1897          590 
  591000    307.67026    -2061.902   -2010.9971   -1504.1897          591 
  592000    296.12494   -2062.0232   -2013.0284   -1373.5083          592 
  593000    307.08159   -2062.6222   -2011.8146   -1304.9426          593 
  594000    290.07828   -2061.0631   -2013.0687   -1588.2215          594 
  595000    299.61259   -2062.3449   -2012.7731   -1165.1977          595 
  596000    301.06181    -2061.729   -2011.9174   -1322.5407          596 
  597000    297.61078   -2063.2474   -2014.0068   -1524.2513          597 
  598000    310.07735   -2062.7964   -2011.4931   -1442.3448          598 
  599000    310.28223   -2060.6244   -2009.2873    -1533.578          599 
  600000    297.65822   -2062.7376   -2013.4892    -1499.126          600 
  601000    303.36401    -2059.629   -2009.4365   -1159.2552          601 
  602000    300.87728   -2060.5407   -2010.7597   -1409.9379          602 
  603000    315.19983   -2061.7694   -2009.6186   -1811.9803          603 
  604000    295.12606   -2062.3752   -2013.5457   -1439.3546          604 
  605000    309.89108   -2060.5265   -2009.2541   -1562.9138          605 
  606000    295.29873   -2062.7858   -2013.9278   -1835.7101          606 
  607000     316.8525   -2059.9815   -2007.5573   -1518.1679          607 
  608000     298.1172   -2060.9148   -2011.5905   -1230.1225          608 
  609000    287.04508   -2062.5713   -2015.0788   -1623.9164          609 
  610000    299.47257    -2060.495   -2010.9463   -1015.0133          610 
  611000    289.42387   -2063.5674   -2015.6814   -1351.2486          611 
  612000    299.86828    -2060.757   -2011.1429   -1539.7458          612 
  613000    295.44552   -2062.6115   -2013.7291   -1676.6697          613 
  614000    299.77361   -2061.2173   -2011.6189   -1398.2379          614 
  615000    299.37375   -2059.5944   -2010.0622   -1373.6505          615 
  616000    286.99355    -2059.577    -2012.093   -1600.5979          616 
  617000    302.34767   -2060.0154   -2009.9911   -1712.3275          617 
  618000    294.58588   -2061.7838   -2013.0436   -1339.8071          618 
  619000    310.10808   -2063.1669   -2011.8586   -1475.5096          619 
  620000    300.02137   -2062.5092   -2012.8698   -1730.6115          620 
  621000    297.41464   -2062.9812   -2013.7731    -1615.559          621 
  622000    306.76247   -2060.6818    -2009.927   -1551.1833          622 
  623000     294.9925   -2059.3743   -2010.5669   -959.90254          623 
  624000    293.89842   -2061.9504   -2013.3241   -1669.7259          624 
  625000    303.97503   -2060.6705   -2010.3769   -1522.1362          625 
  626000    281.32447   -2063.9703   -2017.4243   -1394.5126          626 
  627000    303.29634   -2062.0001   -2011.8188   -1605.8108          627 
  628000    310.09697   -2061.0362   -2009.7298   -1359.1649          628 
  629000    302.35411   -2061.4201   -2011.3947   -1555.4049          629 
  630000    297.37984   -2061.1955   -2011.9932   -1945.2359          630 
  631000     291.8014   -2062.0412   -2013.7618   -1636.6997          631 
  632000    308.84074   -2060.4598   -2009.3611    -1765.601          632 
  633000    305.77725   -2063.3025   -2012.7107   -1627.2736          633 
  634000    309.54184   -2061.4346   -2010.2199   -1878.5988          634 
  635000    299.04727   -2059.4431   -2009.9648   -1525.5162          635 
  636000    307.51325    -2061.985    -2011.106   -1572.8932          636 
  637000    277.59747   -2060.4819   -2014.5525   -1517.6865          637 
  638000    302.72557   -2060.7634   -2010.6765   -1371.6631          638 
  639000    292.59391   -2060.4094   -2011.9988    -1572.617          639 
  640000    301.26601   -2061.2529   -2011.4075   -1721.4288          640 
  641000    295.35694   -2060.3835   -2011.5159   -1689.6621          641 
  642000    299.49517   -2061.9294   -2012.3771   -1400.7209          642 
  643000    279.64019   -2062.2998   -2016.0325   -1683.2631          643 
  644000    308.24817   -2061.6656   -2010.6651   -1411.5769          644 
  645000    306.83412   -2062.4737   -2011.7071   -1267.1734          645 
  646000    306.27879    -2062.665   -2011.9903   -1293.4422          646 
  647000     289.4904   -2061.7772   -2013.8801   -1560.8878          647 
  648000    307.47025   -2062.9154   -2012.0435   -1684.5212          648 
  649000    302.89555   -2061.0426   -2010.9276   -1514.3562          649 
  650000    296.83141   -2062.7855   -2013.6739   -1420.8954          650 
  651000    290.68033   -2061.9383   -2013.8444   -1707.7362          651 
  652000    304.06129   -2062.3542   -2012.0463   -1538.8188          652 
  653000    308.41571   -2060.3583     -2009.33   -1324.4005          653 
  654000    291.38416   -2062.0727   -2013.8623   -1585.1709          654 
  655000    313.67427   -2058.7224   -2006.8241   -1548.5767          655 
  656000    295.24099   -2062.4465    -2013.598   -1666.9698          656 
  657000    305.18175   -2063.3823   -2012.8891   -1593.3909          657 
  658000    293.92444   -2062.1184   -2013.4877   -1802.1841          658 
  659000    303.23837   -2060.4675   -2010.2958    -1583.891          659 
  660000    294.28401   -2061.5417   -2012.8516   -1567.8983          660 
  661000    305.51489   -2063.9714    -2013.423    -1400.946          661 
  662000    295.31009   -2064.8589    -2015.999    -1614.338          662 
  663000    298.35792   -2062.9123   -2013.5481   -1312.7281          663 
  664000    298.27656   -2061.0845   -2011.7338   -1626.3235          664 
  665000    292.53822   -2063.1002   -2014.6989   -1655.6686          665 
  666000    300.24564   -2059.9568   -2010.2802   -1157.5145          666 
  667000    299.18485   -2063.1348   -2013.6337   -1663.3699          667 
  668000    294.30673   -2062.2412   -2013.5473   -1692.7631          668 
  669000    311.25387   -2061.1944   -2009.6965   -1463.8215          669 
  670000     303.8017   -2062.7062   -2012.4413   -1491.3236          670 
  671000    302.16769   -2062.0186   -2012.0241   -1717.6397          671 
  672000    292.23499   -2062.7486   -2014.3975    -1906.318          672 
  673000    319.09286   -2061.8031   -2009.0082   -1160.3024          673 
  674000    286.52057   -2059.9345   -2012.5288   -1580.4329          674 
  675000    301.92478     -2060.99   -2011.0356   -1597.8561          675 
  676000    306.51828   -2059.4813    -2008.767   -1554.8282          676 
  677000    316.81809   -2063.5879   -2011.1694   -1600.5262          677 
  678000    297.69587   -2065.0728   -2015.8182   -1140.9478          678 
  679000    290.26754   -2061.7005   -2013.6748   -1562.1132          679 
  680000    306.52464   -2060.9734    -2010.258   -1433.4638          680 
  681000    294.59638   -2063.6624   -2014.9205    -1570.005          681 
  682000    298.83491   -2061.0448   -2011.6017   -1403.0894          682 
  683000    294.20907   -2059.2063   -2010.5285   -1049.0875          683 
  684000    307.59611   -2062.7684   -2011.8757    -1498.507          684 
  685000    283.26856   -2062.4781   -2015.6105   -1600.7959          685 
  686000    282.43291   -2062.1123    -2015.383   -1557.4993          686 
  687000    302.27982   -2061.8554   -2011.8423   -1518.8895          687 
  688000    288.34176    -2060.694    -2012.987   -1327.0585          688 
  689000    299.76262    -2058.427   -2008.8303   -1438.0978          689 
  690000    296.93583   -2060.4792   -2011.3503   -1656.9899          690 
  691000    288.52936   -2062.2642   -2014.5261   -1711.5087          691 
  692000    301.80116   -2060.7261   -2010.7922   -1697.3446          692 
  693000    291.35458   -2062.1574   -2013.9519   -1523.5202          693 
  694000    298.86724   -2062.8029   -2013.3544   -1289.3564          694 
  695000    302.58421   -2062.1892   -2012.1257   -1982.0855          695 
  696000    300.11086   -2062.3916   -2012.7374   -1064.6242          696 
  697000    321.16737   -2063.5662   -2010.4281   -1267.0676          697 
  698000    297.98637   -2063.0775   -2013.7748   -1851.9822          698 
  699000    302.30736   -2061.4967    -2011.479   -2003.3406          699 
  700000    302.95267   -2062.2652   -2012.1407    -1648.347          700 
  701000    308.19013   -2060.4325   -2009.4415   -1343.9546          701 
  702000    283.52569   -2062.6683   -2015.7581   -1780.9741          702 
  703000    308.21753   -2062.0997   -2011.1042   -1418.8043          703 
  704000    297.15353   -2062.6046   -2013.4396   -1585.7495          704 
  705000    294.95741   -2061.6087   -2012.8072   -1623.6976          705 
  706000    299.94075   -2064.1204   -2014.4943   -1702.2564          706 
  707000    312.67513   -2060.0891   -2008.3561   -1450.9094          707 
  708000    296.54245   -2063.8279   -2014.7641   -1529.4086          708 
  709000    299.37457   -2062.4628   -2012.9304   -1882.9557          709 
  710000    290.65471   -2061.1926   -2013.1029   -1492.7352          710 
  711000    294.45156   -2064.1683   -2015.4504   -1333.5247          711 
  712000    301.32397   -2061.2466   -2011.3917   -1888.5704          712 
  713000    306.01123   -2065.1289   -2014.4984   -1488.9638          713 
  714000    302.98575   -2060.5029    -2010.373   -1737.3218          714 
  715000    293.67488    -2064.172   -2015.5826   -1288.7857          715 
  716000    294.62993    -2062.862   -2014.1146   -1545.7915          716 
  717000    296.65193   -2062.7281   -2013.6462    -1898.335          717 
  718000     295.2259   -2064.5544   -2015.7084   -1243.3586          718 
  719000    300.71769   -2061.6519   -2011.8973   -1497.9973          719 
  720000    293.74628   -2062.6304   -2014.0292   -1323.7463          720 
  721000    295.53953   -2061.1199    -2012.222   -1502.3448          721 
  722000     296.6731   -2062.5821   -2013.4967   -1765.9184          722 
  723000    305.65019   -2060.7257    -2010.155   -1648.8169          723 
  724000    296.72613   -2064.0607   -2014.9665   -1506.2504          724 
  725000    292.49858   -2063.6586   -2015.2639   -1139.8021          725 
  726000    301.55605   -2063.3127   -2013.4194   -1431.9414          726 
  727000    307.63076   -2060.4216   -2009.5232   -1364.3402          727 
  728000    304.61865   -2064.2344   -2013.8343   -1420.3623          728 
  729000    297.78618   -2061.4803   -2012.2107   -1290.5254          729 
  730000    306.68521   -2063.7913   -2013.0493   -1334.5661          730 
  731000    299.19316   -2065.4746   -2015.9722   -1696.4356          731 
  732000    302.02941   -2062.9661   -2012.9945   -1640.7851          732 
  733000    310.74143   -2064.4859   -2013.0729   -1508.7868          733 
  734000    296.11142    -2062.434   -2013.4414   -1544.5962          734 
  735000    301.70241   -2062.9467   -2013.0291   -1771.4267          735 
  736000    304.87096   -2062.1706   -2011.7288   -1168.5116          736 
  737000    310.37798   -2062.6996   -2011.3466   -1350.1085          737 
  738000    292.38804   -2063.5535   -2015.1771    -1830.467          738 
  739000    296.93112   -2061.7402   -2012.6121   -1632.3786          739 
  740000    305.84349    -2061.294   -2010.6912   -1518.4909          740 
  741000    294.64165   -2064.5439   -2015.7945   -1595.8453          741 
  742000    293.06887    -2060.857   -2012.3679   -1222.0262          742 
  743000    298.48219   -2062.3263   -2012.9415    -1043.932          743 
  744000    291.18574   -2063.4157   -2015.2381   -1663.6086          744 
  745000    304.32635   -2061.8096   -2011.4579   -1350.4255          745 
  746000    292.82499   -2062.7027    -2014.254   -1374.2376          746 
  747000    300.38536   -2064.1907   -2014.4911   -1618.2322          747 
  748000    291.29785   -2062.5679   -2014.3718   -1500.8065          748 
  749000    307.23494   -2063.5717   -2012.7388   -1231.1616          749 
  750000     291.5963   -2063.1262   -2014.8807   -1659.2379          750 
  751000     319.6855   -2062.0596   -2009.1666   -1651.2301          751 
  752000    295.82765   -2063.6413   -2014.6957   -1484.5288          752 
  753000    291.92101   -2064.8879   -2016.5887   -1495.8797          753 
  754000    303.00448   -2064.5861   -2014.4531   -1717.4069          754 
  755000    293.38714   -2062.2884   -2013.7466   -1772.0643          755 
  756000    299.48463   -2063.0274   -2013.4768   -1424.9319          756 
  757000    303.75029   -2063.8817   -2013.6253   -1155.5922          757 
  758000    314.40146   -2063.7173   -2011.6987   -1682.1631          758 
  759000    296.77134   -2065.0712   -2015.9695   -1557.7504          759 
  760000     293.8295   -2065.0098   -2016.3949   -1276.8304          760 
  761000    305.27374   -2063.9168   -2013.4084   -1529.2692          761 
  762000    300.61091   -2063.4626   -2013.7256   -1950.9803          762 
  763000    300.03871   -2065.0676   -2015.4253   -1516.7425          763 
  764000    302.45303   -2062.8953   -2012.8535    -1632.303          764 
  765000     301.4611   -2062.5777      -2012.7   -1331.2869          765 
  766000    304.15283   -2062.7221   -2012.3991   -1423.7504          766 
  767000    292.84364   -2063.3943   -2014.9425   -1951.8749          767 
  768000    289.29771   -2064.4736   -2016.6084   -1776.0192          768 
  769000    298.67558   -2063.1156   -2013.6989    -1364.736          769 
  770000    310.24629   -2063.5116   -2012.1804   -1641.0498          770 
  771000    306.11353   -2063.1552   -2012.5078   -1700.9922          771 
  772000    293.68749   -2063.0203   -2014.4289   -1707.4755          772 
  773000    297.13721   -2062.3325   -2013.1703   -1608.9411          773 
  774000    293.34406   -2063.3249   -2014.7903   -1596.1955          774 
  775000    315.45468    -2062.166   -2009.9731   -1014.3985          775 
  776000     306.1804    -2062.691   -2012.0325   -1224.3962          776 
  777000    286.90786   -2063.3945   -2015.9247   -1725.5022          777 
  778000    305.06723   -2062.2516   -2011.7773   -1391.6429          778 
  779000    300.50692   -2063.8821   -2014.1623   -1577.0674          779 
  780000    297.67055   -2063.9585    -2014.708   -1558.5925          780 
  781000    298.83926   -2063.5128    -2014.069   -1432.5077          781 
  782000    284.76165   -2065.1695   -2018.0548   -1296.2315          782 
  783000    300.67804   -2063.6443   -2013.8962   -1500.4561          783 
  784000    314.57589   -2063.4374   -2011.3899   -1620.5644          784 
  785000    296.54864   -2063.0277   -2013.9628   -1809.1644          785 
  786000    299.31557   -2066.6139   -2017.0913   -1467.3023          786 
  787000    300.87025   -2064.5893   -2014.8095    -1472.681          787 
  788000    298.79893   -2061.6953   -2012.2581   -1404.1858          788 
  789000    294.51766     -2063.05   -2014.3211   -1749.6536          789 
  790000    296.52074   -2060.8346   -2011.7743   -1613.5984          790 
  791000    292.54581   -2064.0207   -2015.6182    -1573.441          791 
  792000    300.46008    -2062.364    -2012.652   -1482.8848          792 
  793000    308.50628   -2065.2018   -2014.1585   -1556.2814          793 
  794000      300.038   -2063.6869   -2014.0447   -1532.1293          794 
  795000    292.62054   -2063.1397   -2014.7247   -1468.8717          795 
  796000    309.24122   -2063.8885   -2012.7236   -1363.0583          796 
  797000    296.96751   -2062.5014   -2013.3673   -1804.1222          797 
  798000    297.73466   -2065.0935   -2015.8324   -1466.7074          798 
  799000    300.10725   -2063.3227   -2013.6691   -1685.6496          799 
  800000    285.10761    -2064.962   -2017.7901   -1560.2933          800 
  801000    299.47365   -2063.2591   -2013.7103   -1488.1192          801 
  802000    292.45713   -2064.1818   -2015.7938   -1351.3284          802 
  803000    299.52518   -2062.8063   -2013.2489   -1533.7619          803 
  804000    313.09791    -2064.662    -2012.859   -1260.8665          804 
  805000    290.70961   -2063.0898    -2014.991   -1219.5964          805 
  806000      299.248   -2064.7567   -2015.2452   -1533.0921          806 
  807000    303.92122   -2064.2591   -2013.9744   -1431.2995          807 
  808000    300.74559   -2065.3135   -2015.5543   -1981.9545          808 
  809000    298.08149   -2066.9964   -2017.6779   -1677.1499          809 
  810000     302.6621   -2065.1055   -2015.0292   -1226.4577          810 
  811000    286.83879   -2065.1276   -2017.6693   -1370.7133          811 
  812000    306.60159   -2064.3682   -2013.6401   -1496.6253          812 
  813000    299.62443    -2063.189   -2013.6153   -1645.6786          813 
  814000    311.46967   -2063.9015   -2012.3679   -1374.1513          814 
  815000    292.85727   -2065.6129   -2017.1588   -1091.5746          815 
  816000    307.64474   -2064.8819   -2013.9811    -1765.969          816 
  817000    303.59701   -2063.5399   -2013.3089   -1690.5538          817 
  818000    310.21972   -2064.7327   -2013.4059   -1514.6302          818 
  819000    306.23784   -2063.5582   -2012.8903   -963.70556          819 
  820000    301.40023   -2064.2568   -2014.3892   -1440.9133          820 
  821000    314.39452   -2065.2684   -2013.2509   -1806.1571          821 
  822000    303.15618   -2064.7135   -2014.5554   -1438.4123          822 
  823000    296.37507    -2064.308   -2015.2719   -1686.8693          823 
  824000    297.94701   -2062.5711   -2013.2748   -1715.1799          824 
  825000    292.16112   -2064.9072   -2016.5683   -1068.5467          825 
  826000       296.32   -2063.8618   -2014.8348   -1729.1689          826 
  827000    305.35874   -2064.5299   -2014.0074   -1861.0212          827 
  828000    287.99829   -2063.7909   -2016.1407   -1133.5535          828 
  829000    304.96259   -2065.0946   -2014.6377   -1689.5284          829 
  830000    290.29609    -2063.811   -2015.7806   -1482.2837          830 
  831000    297.82247   -2066.2739   -2016.9983   -1480.3166          831 
  832000    295.69788   -2062.9604   -2014.0363   -1474.7883          832 
  833000    295.64721    -2064.466   -2015.5503   -1609.0325          833 
  834000    291.51431    -2063.339    -2015.107   -1545.3555          834 
  835000     316.7201   -2063.8448   -2011.4425   -1349.6173          835 
  836000    291.68193   -2064.7263   -2016.4667   -1388.1569          836 
  837000    293.18589   -2062.4488   -2013.9403   -1587.4649          837 
  838000    296.73678   -2061.8643   -2012.7683   -1728.9085          838 
  839000    291.28328   -2064.4034   -2016.2097   -1905.6057          839 
  840000    304.38081   -2066.0204   -2015.6597   -1469.5304          840 
  841000    302.07108   -2062.6336   -2012.6551   -1799.6481          841 
  842000    296.21473   -2063.9858   -2014.9762   -1241.9242          842 
  843000    303.43896   -2063.9032   -2013.6983   -1396.7835          843 
  844000    304.59781   -2064.0717   -2013.6751   -1759.7808          844 
  845000    298.95573   -2066.5267   -2017.0635   -1505.1234          845 
  846000    309.85613   -2064.0231   -2012.7565   -1259.1239          846 
  847000     294.8779    -2063.653   -2014.8646   -1380.4315          847 
  848000    299.92974   -2063.0536   -2013.4293   -1794.6292          848 
  849000    294.23639   -2065.3097   -2016.6274   -962.38477          849 
  850000     309.4099   -2065.2998    -2014.107   -1889.4134          850 
  851000    293.90083   -2064.2266   -2015.5999    -1462.332          851 
  852000    291.63303   -2064.4894   -2016.2378   -1236.1378          852 
  853000    305.53308   -2063.6014     -2013.05   -1581.3261          853 
  854000    303.13528    -2064.274   -2014.1193   -1319.6616          854 
  855000    300.30615   -2062.9141   -2013.2276   -1590.3764          855 
  856000    302.27222   -2064.5853   -2014.5735     -1613.08          856 
  857000    293.94668   -2063.1322   -2014.4979   -1149.2149          857 
  858000    280.49563   -2062.4843   -2016.0755   -1426.7859          858 
  859000    281.15475   -2062.6177   -2016.0998   -1819.9005          859 
  860000    299.63403   -2063.3643    -2013.789   -1440.9508          860 
  861000    298.51068   -2063.1086   -2013.7191   -1982.9425          861 
  862000    291.30306   -2064.4409    -2016.244   -1273.5049          862 
  863000    304.40487   -2062.8901   -2012.5254   -1228.3399          863 
  864000    303.58021   -2063.0659   -2012.8376   -1913.5379          864 
  865000    293.69628    -2062.556   -2013.9631   -1524.9402          865 
  866000    297.05098    -2063.122    -2013.974   -1775.6424          866 
  867000    301.77097   -2064.4941   -2014.5652   -1873.4952          867 
  868000    299.40088    -2065.447   -2015.9102   -2004.1572          868 
  869000    304.37921   -2064.0019   -2013.6414   -1419.5577          869 
  870000    296.18985   -2063.4717   -2014.4662   -1293.6064          870 
  871000    305.91762   -2062.6359   -2012.0209   -1291.3079          871 
  872000    295.35895   -2064.1034   -2015.2353   -1340.4536          872 
  873000    308.40021   -2063.1388    -2012.113    -1609.033          873 
  874000    302.68264   -2064.8166   -2014.7369   -1182.5698          874 
  875000    296.58098   -2065.0164   -2015.9462    -1560.784          875 
  876000    300.18914   -2064.8025   -2015.1353    -1610.896          876 
  877000    311.29041   -2062.2393   -2010.7353   -1582.3261          877 
  878000    302.41418   -2064.7537   -2014.7184   -1277.3744          878 
  879000    301.10578   -2063.4975   -2013.6787    -1678.866          879 
  880000    298.67711   -2062.0476   -2012.6306   -1492.9846          880 
  881000    294.82351   -2063.3953   -2014.6159   -1376.0268          881 
  882000    302.99067   -2062.3525   -2012.2218   -1929.2587          882 
  883000    306.14071    -2065.817   -2015.1651   -1296.1447          883 
  884000    307.73446   -2063.0755   -2012.1599   -1945.8935          884 
  885000    295.62374   -2064.1099    -2015.198   -1420.4473          885 
  886000    320.10542   -2063.6692   -2010.7068   -1404.0211          886 
  887000    303.47448   -2066.3354   -2016.1246   -1440.1528          887 
  888000    295.80235   -2063.9584    -2015.017   -1690.2964          888 
  889000    300.84526    -2064.784   -2015.0082   -1465.1428          889 
  890000    304.92779   -2064.6165   -2014.1653   -1734.9815          890 
  891000    291.68386   -2065.0764   -2016.8164   -1559.8383          891 
  892000    310.29084   -2064.3183   -2012.9798   -1588.6003          892 
  893000    294.54972     -2066.08   -2017.3459   -1606.9006          893 
  894000    294.52473   -2064.7724   -2016.0424   -1497.3327          894 
  895000     305.6332    -2065.237    -2014.669   -1587.1962          895 
  896000    290.91584   -2064.2824   -2016.1495   -1548.6731          896 
  897000    297.52499   -2062.4477   -2013.2213   -1395.5552          897 
  898000     309.6177   -2066.2198   -2014.9926   -1383.5892          898 
  899000    318.87984   -2060.6164   -2007.8568   -1498.2304          899 
  900000     301.4762   -2064.9792   -2015.0991   -1498.5413          900 
  901000     308.2052    -2063.066   -2012.0726   -1558.9057          901 
  902000    294.81307   -2065.3697    -2016.592   -1513.5749          902 
  903000    300.04929   -2063.7479   -2014.1039   -2324.6012          903 
  904000    297.68005   -2065.0675   -2015.8154   -1364.8116          904 
  905000    295.14092   -2065.2014   -2016.3695   -1369.6683          905 
  906000    308.69136   -2065.0335   -2013.9596   -1770.1994          906 
  907000     295.1567   -2065.0559   -2016.2214   -1581.6311          907 
  908000    298.15364     -2062.64   -2013.3096   -1311.4224          908 
  909000    298.55859   -2062.8207   -2013.4233   -1560.0429          909 
  910000    292.73966   -2063.1039   -2014.6692   -1526.6895          910 
  911000    310.65983   -2060.7825   -2009.3829    -1338.192          911 
  912000    290.24239    -2064.232   -2016.2105    -1369.146          912 
  913000     306.5337   -2063.6849    -2012.968   -1479.8376          913 
  914000    294.07794   -2064.8434   -2016.1873   -1130.3059          914 
  915000    306.26501   -2064.7198   -2014.0473   -1750.6066          915 
  916000    303.39728   -2065.2494   -2015.0515   -1716.8672          916 
  917000    297.24569   -2063.7358   -2014.5556   -1427.4202          917 
  918000    301.57031   -2065.4255   -2015.5298   -1623.0392          918 
  919000    299.46905   -2064.7238   -2015.1757    -1452.892          919 
  920000     307.9959   -2064.3159    -2013.357   -1067.3375          920 
  921000    289.62584   -2065.0741   -2017.1546   -1747.2155          921 
  922000    302.12487   -2063.3203   -2013.3329   -1137.6995          922 
  923000    283.23842   -2063.7689   -2016.9063   -1342.6261          923 
  924000    304.98623   -2064.2448   -2013.7839   -1681.7751          924 
  925000    294.75518   -2066.3731   -2017.6049   -1367.5899          925 
  926000    300.56937   -2063.0734   -2013.3433   -1627.5794          926 
  927000    298.07769   -2066.6747   -2017.3569   -1371.8149          927 
  928000    296.32038   -2063.6812   -2014.6541   -1877.4281          928 
  929000    295.61002   -2066.4929   -2017.5834   -1194.7247          929 
  930000    298.45967   -2063.1482   -2013.7672     -1317.37          930 
  931000    295.74487   -2063.6259   -2014.6941   -1717.9226          931 
  932000    300.55238   -2064.7452    -2015.018   -1347.4118          932 
  933000    296.98408   -2062.0992   -2012.9623   -1519.6816          933 
  934000    301.77273   -2066.0866   -2016.1574   -1489.2044          934 
  935000     293.7707   -2065.0469   -2016.4416    -1640.103          935 
  936000    297.20369   -2064.5567   -2015.3835   -1496.3562          936 
  937000    296.66952   -2064.4763   -2015.3914   -1421.9226          937 
  938000    301.30002   -2061.7226   -2011.8716     -1841.85          938 
  939000     307.4778   -2064.8648   -2013.9916   -1571.9427          939 
  940000    301.41297   -2063.1638   -2013.2941   -1613.1107          940 
  941000    275.85533   -2063.0592   -2017.4181   -2022.4377          941 
  942000    301.50277   -2062.7517   -2012.8672   -1429.7102          942 
  943000    295.48045   -2064.5356   -2015.6474   -1801.7126          943 
  944000    299.86097   -2064.5747   -2014.9618   -1266.7548          944 
  945000      308.615   -2062.2002   -2011.1389    -1522.006          945 
  946000    290.86404   -2064.5058   -2016.3815   -1677.9978          946 
  947000    300.93804   -2063.9442   -2014.1531   -1563.8051          947 
  948000     285.5253   -2065.3965   -2018.1555   -1464.8197          948 
  949000    284.28008   -2063.8284   -2016.7934   -1258.2541          949 
  950000    304.75223   -2064.3808   -2013.9586    -1655.382          950 
  951000    301.91091   -2064.9641    -2015.012   -1261.9197          951 
  952000    303.49844   -2065.6867   -2015.4719    -1486.579          952 
  953000    303.81982    -2064.594   -2014.3261   -1698.2572          953 
  954000    290.55442   -2065.8613   -2017.7882   -1618.8729          954 
  955000    303.57083   -2064.2677    -2014.041   -1370.5305          955 
  956000    295.53003   -2065.2652   -2016.3689   -1482.5662          956 
  957000    304.66412   -2064.1907   -2013.7831   -1570.9633          957 
  958000    294.55332   -2064.4748   -2015.7401   -1495.4178          958 
  959000    293.95971   -2066.2726   -2017.6361   -1393.7117          959 
  960000    298.12822    -2063.935   -2014.6088   -1536.7375          960 
  961000    299.00781   -2063.9731   -2014.5013   -1563.2835          961 
  962000    305.17945   -2066.6217   -2016.1288   -1089.0937          962 
  963000    293.99392   -2061.6452   -2013.0031   -1712.3294          963 
  964000    296.33572   -2065.8836    -2016.854   -1895.6621          964 
  965000    291.56827    -2064.916   -2016.6752    -1286.863          965 
  966000     303.3488   -2064.9065   -2014.7166   -1401.6906          966 
  967000    304.12034   -2067.0652   -2016.7476   -1536.3182          967 
  968000    298.06407   -2064.2849   -2014.9693   -1663.9718          968 
  969000    304.10432   -2064.7971   -2014.4821   -1321.9528          969 
  970000    303.35116   -2064.2746   -2014.0843   -1454.4088          970 
  971000    311.48365   -2064.9805   -2013.4446   -1443.8431          971 
  972000     303.0907   -2065.2428   -2015.0956   -1745.0138          972 
  973000    302.54441   -2064.4953   -2014.4384   -1587.6403          973 
  974000    284.77934   -2064.3421   -2017.2245   -1327.9964          974 
  975000     305.6194   -2064.5881   -2014.0225   -1370.1108          975 
  976000    297.50044   -2063.5922   -2014.3698   -1214.2711          976 
  977000    304.08375   -2063.5873   -2013.2757   -1636.6434          977 
  978000    289.26266   -2063.9829   -2016.1235    -1501.871          978 
  979000    297.05432   -2062.7234   -2013.5749   -2019.0384          979 
  980000    298.37019   -2066.8266   -2017.4603   -1607.3854          980 
  981000    296.25452   -2067.9703   -2018.9541   -1505.1558          981 
  982000    307.30727   -2064.6564   -2013.8115   -1796.0151          982 
  983000    297.33119   -2065.2867   -2016.0924   -1179.3895          983 
  984000    299.66263   -2064.0417   -2014.4616   -1517.7451          984 
  985000      289.588   -2065.3955   -2017.4823   -1455.0887          985 
  986000    308.27785   -2061.9476   -2010.9421   -1403.1584          986 
  987000    291.08894   -2062.9343   -2014.7728   -1337.8477          987 
  988000    283.91627   -2063.2297   -2016.2549   -1302.7283          988 
  989000    302.05763   -2064.0966   -2014.1202   -1672.3804          989 
  990000    287.56262   -2066.5232   -2018.9451   -1421.2388          990 
  991000    288.29132   -2062.2914   -2014.5927   -1545.2202          991 
  992000    293.76394   -2067.3594   -2018.7553   -1434.5127          992 
  993000    291.15463   -2064.1598   -2015.9874   -1653.6919          993 
  994000    291.73406   -2064.7855   -2016.5172   -1520.0262          994 
  995000    305.11202   -2065.6199   -2015.1382   -1416.0279          995 
  996000    296.96215   -2065.5498   -2016.4165   -1067.0096          996 
  997000    308.50418   -2063.6866   -2012.6436   -1520.6704          997 
  998000    302.48988   -2067.3499    -2017.302   -1467.3833          998 
  999000    300.28575   -2064.8367   -2015.1535   -1725.9163          999 
 1000000    289.87591   -2066.3085   -2018.3477   -1191.7892         1000 
Loop time of 1526.9 on 28 procs for 1000000 steps with 1473 atoms

Performance: 56.585 ns/day, 0.424 hours/ns, 654.923 timesteps/s
100.0% CPU use with 28 MPI tasks x no OpenMP threads

MPI task timing breakdown:
Section |  min time  |  avg time  |  max time  |%varavg| %total
---------------------------------------------------------------
Pair    | 1081       | 1093.2     | 1152.3     |  61.7 | 71.60
Bond    | 0.076102   | 1.3143     | 4.8962     | 138.3 |  0.09
Kspace  | 251.87     | 277.51     | 303.86     |  58.5 | 18.17
Neigh   | 71.378     | 71.836     | 72.392     |   3.0 |  4.70
Comm    | 14.26      | 37.453     | 82.558     | 358.0 |  2.45
Output  | 0.58479    | 0.5863     | 0.59296    |   0.2 |  0.04
Modify  | 4.3769     | 41.816     | 71.864     | 480.2 |  2.74
Other   |            | 3.132      |            |       |  0.21

Nlocal:    52.6071 ave 237 max 0 min
Histogram: 16 1 1 2 3 0 1 2 0 2
Nghost:    995.893 ave 1516 max 252 min
Histogram: 4 4 0 0 2 2 2 2 6 6
Neighs:    9654.79 ave 66035 max 0 min
Histogram: 19 1 3 1 1 1 1 0 0 1

Total # of neighbors = 270334
Ave neighs/atom = 183.526
Ave special neighs/atom = 1.34827
Neighbor list builds = 44291
Dangerous builds = 12

write_data final.data
PPPM initialization ...
  using 12-bit tables for long-range coulomb (../kspace.cpp:332)
  G vector (1/distance) = 0.218434
  grid = 18 18 18
  stencil order = 5
  estimated absolute RMS force accuracy = 0.000936613
  estimated relative force accuracy = 6.50442e-05
  using double precision KISS FFT
  3d grid and FFT values/proc = 1764 270
WARNING: Using a manybody potential with bonds/angles/dihedrals and special_bond exclusions (../pair.cpp:226)
Neighbor list info ...
  update every 1 steps, delay 10 steps, check yes
  max neighbors/atom: 2000, page size: 100000
  master list distance cutoff = 13
  ghost atom cutoff = 13
  binsize = 6.5, bins = 8 8 8
  3 neighbor lists, perpetual/occasional/extra = 3 0 0
  (1) pair lj/cut/coul/long, perpetual, skip from (3)
      attributes: half, newton on
      pair build: skip
      stencil: none
      bin: none
  (2) pair eam, perpetual, skip from (3)
      attributes: half, newton on
      pair build: skip
      stencil: none
      bin: none
  (3) neighbor class addition, perpetual
      attributes: half, newton on
      pair build: half/bin/newton
      stencil: half/bin/3d/newton
      bin: standard
Total wall time: 0:25:27
