LAMMPS (3 Mar 2020)
include "system.in.init"
units real
atom_style full
bond_style harmonic
angle_style harmonic
dihedral_style opls
improper_style harmonic
pair_style lj/cut/coul/long 11.0 11.0
pair_modify mix geometric
special_bonds lj/coul 0.0 0.0 0.5
kspace_style pppm 0.0001
read_data "system.data"
  orthogonal box = (0 0 0) to (50 50 50)
  2 by 2 by 7 MPI processor grid
  reading atoms ...
  16712 atoms
  scanning bonds ...
  3 = max bonds/atom
  scanning angles ...
  3 = max angles/atom
  reading bonds ...
  12534 bonds
  reading angles ...
  12534 angles
  3 = max # of 1-2 neighbors
  2 = max # of 1-3 neighbors
  2 = max # of 1-4 neighbors
  3 = max # of special neighbors
  special bonds CPU = 0.00489203 secs
  read_data CPU = 0.0427973 secs
include "system.in.settings"
pair_coeff 1 1 0.1554 3.16557
pair_coeff 2 2 0.0 0.0
pair_coeff 3 3 0.066 3.5
pair_coeff 4 4 0.066 3.5
pair_coeff 5 5 0.066 3.5
pair_coeff 6 6 0.066 3.5
pair_coeff 7 7 0.066 3.5
pair_coeff 8 8 0.03 2.5
pair_coeff 9 9 0.076 3.55
pair_coeff 10 10 0.076 3.55
pair_coeff 11 11 0.076 3.55
pair_coeff 12 12 0.03 2.42
pair_coeff 13 13 0.07 3.55
pair_coeff 14 14 0.03 2.42
pair_coeff 15 15 0.07 3.55
pair_coeff 16 16 0.155 3.15365
pair_coeff 17 17 0.0 0.0
pair_coeff 18 18 0.0 0.0
bond_coeff 1 554.1349 1.0
bond_coeff 2 268.0 1.529
bond_coeff 3 340.0 1.09
bond_coeff 4 317.0 1.51
bond_coeff 5 340.0 1.08
bond_coeff 6 549.0 1.34
bond_coeff 7 469.0 1.4
bond_coeff 8 367.0 1.08
bond_coeff 9 317.0 1.51
bond_coeff 10 427.0 1.433
bond_coeff 11 600.0 0.9572
bond_coeff 12 900.0 0.15
angle_coeff 1 45.7696 109.47
angle_coeff 2 58.35 112.7
angle_coeff 3 33.0 107.8
angle_coeff 4 37.5 110.7
angle_coeff 5 35.0 109.5
angle_coeff 6 63.0 112.4
angle_coeff 7 70.0 124.0
angle_coeff 8 35.0 109.5
angle_coeff 9 63.0 114.0
angle_coeff 10 85.0 119.7
angle_coeff 11 63.0 120.0
angle_coeff 12 35.0 120.0
angle_coeff 13 75.0 104.52
angle_coeff 14 50.0 52.26
dihedral_coeff 1 1.3 -0.05 0.2 0.0
dihedral_coeff 2 0.0 0.0 0.3 0.0
dihedral_coeff 3 0.0 0.0 0.3 0.0
dihedral_coeff 4 0.0 0.0 0.366 0.0
dihedral_coeff 5 0.0 0.0 0.462 0.0
dihedral_coeff 6 0.205 -0.531 0.0 0.0
dihedral_coeff 7 0.0 0.0 -0.372 0.0
dihedral_coeff 8 0.0 14.0 0.0 0.0
dihedral_coeff 9 0.0 14.0 0.0 0.0
dihedral_coeff 10 0.205 -0.531 0.0 0.0
dihedral_coeff 11 0.0 0.0 -0.372 0.0
dihedral_coeff 12 1.241 3.353 -0.286 0.0
dihedral_coeff 13 0.0 7.25 0.0 0.0
dihedral_coeff 14 0.0 7.25 0.0 0.0
dihedral_coeff 15 0.0 7.25 0.0 0.0
improper_coeff 1 15.0 0.0
improper_coeff 2 1.0 0.0
timestep 0.1
thermo_style custom step temp pe etotal press time
thermo 1000
fix  fxnvt all rigid/nvt/small molecule temp 300.0 300.0 100
  create bodies CPU = 0.00119401 secs
4178 rigid bodies with 16712 atoms
  0.87348 = max distance from body owner to body atom
dump d1 all custom 100 relax.lammpstrj id mol type x y z vx vy vz
run  50000
PPPM initialization ...
  using 12-bit tables for long-range coulomb (../kspace.cpp:332)
  G vector (1/distance) = 0.241446
  grid = 24 24 24
  stencil order = 5
  estimated absolute RMS force accuracy = 0.0362875
  estimated relative force accuracy = 0.000109279
  using double precision KISS FFT
  3d grid and FFT values/proc = 2890 576
Neighbor list info ...
  update every 1 steps, delay 10 steps, check yes
  max neighbors/atom: 2000, page size: 100000
  master list distance cutoff = 13
  ghost atom cutoff = 13
  binsize = 6.5, bins = 8 8 8
  1 neighbor lists, perpetual/occasional/extra = 1 0 0
  (1) pair lj/cut/coul/long, perpetual
      attributes: half, newton on
      pair build: half/bin/newton
      stencil: half/bin/3d/newton
      bin: standard
Per MPI rank memory allocation (min/avg/max) = 17.91 | 19.01 | 19.37 Mbytes
Step Temp PotEng TotEng Press Time 
       0            0     54310.83     54310.83    25172.817            0 
    1000     1823.624   -13348.015    32068.736    29002.747          100 
    2000    1377.6904   -17776.315    16534.607     19308.69          200 
    3000    1104.2885   -21142.388    6359.5508    14527.219          300 
    4000    923.16202   -23860.643   -869.59944    11362.663          400 
    5000    784.28149   -25775.463    -6243.193    8916.8886          500 
    6000    692.11759   -27625.789    -10388.83    7318.0199          600 
    7000    622.16002   -29237.215   -13742.527    5551.4542          700 
    8000    567.24388   -30580.867   -16453.846    4893.7885          800 
    9000    515.01855   -31555.559   -18729.193    4079.5949          900 
   10000    486.16402   -32767.745   -20659.991    3963.8268         1000 
   11000    457.89435   -33747.359   -22343.652    2752.5249         1100 
   12000     438.7914   -34714.578   -23786.623    2450.8594         1200 
   13000    413.23235   -35348.934    -25057.52    2356.8428         1300 
   14000    395.30977   -36026.916   -26181.858    1687.0264         1400 
   15000    377.28907   -36555.489    -27159.23     1417.337         1500 
   16000    368.53977   -37200.102   -28021.741    1155.4197         1600 
   17000    359.02954   -37746.012   -28804.501    1247.2598         1700 
   18000    347.52701   -38170.991   -29515.946    1153.2525         1800 
   19000    342.44197   -38667.834   -30139.431    810.79254         1900 
   20000    332.04733   -38950.014   -30680.485    691.05935         2000 
   21000    325.01965   -39262.049   -31167.543    689.90763         2100 
   22000    320.55598   -39573.619   -31590.279    422.42208         2200 
   23000    312.01802   -39724.647   -31953.942    437.83357         2300 
   24000    309.67359   -39963.728    -32251.41    171.79829         2400 
   25000    309.26374   -40230.388   -32528.277    197.39698         2500 
   26000    311.41043   -40536.059   -32780.486    49.777939         2600 
   27000    302.51316   -40525.801   -32991.811     185.7566         2700 
   28000    300.21747   -40647.675   -33170.859    90.978614         2800 
   29000    302.02757   -40834.344   -33312.448   -23.108657         2900 
   30000    300.71892   -40896.496   -33407.191   -116.03595         3000 
   31000    300.31752   -40891.698    -33412.39    362.03405         3100 
   32000    302.22822   -40882.538   -33355.644   -102.13523         3200 
   33000    302.63902    -40944.44   -33407.315     244.1135         3300 
   34000    301.59146   -40980.716   -33469.681    56.701771         3400 
   35000    299.71226   -40944.727   -33480.493    193.13633         3500 
   36000    304.17794   -41036.841    -33461.39     241.8028         3600 
   37000     301.3671   -41024.466   -33519.018    434.02286         3700 
   38000    299.92392   -41137.517   -33668.012    326.56737         3800 
   39000    297.29674   -41141.035   -33736.958    129.03052         3900 
   40000    302.60748   -41187.848   -33651.509    94.236531         4000 
   41000    301.45841   -41122.615   -33614.893    10.961823         4100 
   42000    303.37245   -41122.583   -33567.193    523.30287         4200 
   43000    299.49586   -41083.884   -33625.039    366.57432         4300 
   44000    300.28591   -41202.724   -33724.203    141.01156         4400 
   45000    302.69271   -41258.136   -33719.674    163.15547         4500 
   46000    299.85769   -41131.789   -33663.933    446.77391         4600 
   47000    301.44034   -41159.401   -33652.129    408.87443         4700 
   48000    298.60722   -41094.625   -33657.912    279.95736         4800 
   49000    298.68633   -41053.771   -33615.087    498.66981         4900 
   50000    295.99549   -41063.215   -33691.546    628.22546         5000 
Loop time of 441.645 on 28 procs for 50000 steps with 16712 atoms

Performance: 0.978 ns/day, 24.536 hours/ns, 113.213 timesteps/s
100.0% CPU use with 28 MPI tasks x no OpenMP threads

MPI task timing breakdown:
Section |  min time  |  avg time  |  max time  |%varavg| %total
---------------------------------------------------------------
Pair    | 299.54     | 313.99     | 324.46     |  32.0 | 71.10
Bond    | 1.8147     | 1.8665     | 1.9053     |   1.4 |  0.42
Kspace  | 49.466     | 58.939     | 75.297     |  79.2 | 13.35
Neigh   | 3.1433     | 3.1783     | 3.1966     |   0.7 |  0.72
Comm    | 13.376     | 15.204     | 17.004     |  36.0 |  3.44
Output  | 0.88684    | 1.0558     | 1.2435     |  10.3 |  0.24
Modify  | 44.294     | 44.553     | 44.758     |   1.8 | 10.09
Other   |            | 2.858      |            |       |  0.65

Nlocal:    596.857 ave 628 max 566 min
Histogram: 2 0 5 4 4 3 4 4 0 2
Nghost:    10925.6 ave 11056 max 10841 min
Histogram: 3 4 7 0 5 2 5 1 0 1
Neighs:    366825 ave 397325 max 338285 min
Histogram: 1 1 3 3 8 5 2 3 1 1

Total # of neighbors = 10271096
Ave neighs/atom = 614.594
Ave special neighs/atom = 3
Neighbor list builds = 326
Dangerous builds = 0
write_data relax.data
PPPM initialization ...
  using 12-bit tables for long-range coulomb (../kspace.cpp:332)
  G vector (1/distance) = 0.241446
  grid = 24 24 24
  stencil order = 5
  estimated absolute RMS force accuracy = 0.0362875
  estimated relative force accuracy = 0.000109279
  using double precision KISS FFT
  3d grid and FFT values/proc = 2890 576

reset_timestep 0
timestep 1
undump d1
dump d2 all custom 1000 system.lammpstrj id mol type x y z vx vy vz
run  1000000
PPPM initialization ...
  using 12-bit tables for long-range coulomb (../kspace.cpp:332)
  G vector (1/distance) = 0.241446
  grid = 24 24 24
  stencil order = 5
  estimated absolute RMS force accuracy = 0.0362875
  estimated relative force accuracy = 0.000109279
  using double precision KISS FFT
  3d grid and FFT values/proc = 2890 576
Per MPI rank memory allocation (min/avg/max) = 18.82 | 19.24 | 19.37 Mbytes
Step Temp PotEng TotEng Press Time 
       0    295.99549   -41063.215   -33691.546    1289.2226         5000 
    1000    298.54188   -41209.564   -33774.477    386.46603         6000 
    2000    297.31463   -41248.435   -33843.913    73.011017         7000 
    3000    297.19509   -41313.241   -33911.696    539.64229         8000 
    4000    299.51368    -41071.96   -33612.671    363.82143         9000 
    5000    299.28417   -41270.616   -33817.043    52.793174        10000 
    6000    300.02526   -41363.709    -33891.68    502.92572        11000 
    7000    303.10572   -41182.671   -33633.924    288.66141        12000 
    8000    299.30835   -40999.729   -33545.554     99.49114        13000 
    9000    298.20801   -41216.314   -33789.542    158.15737        14000 
   10000    302.22809   -41238.007   -33711.117     230.4915        15000 
   11000    299.05619   -41173.005    -33725.11   -30.669579        16000 
   12000    299.33439   -41342.559   -33887.736    121.27569        17000 
   13000    299.85716   -41235.935   -33768.092    478.42105        18000 
   14000    293.87532     -41272.1   -33953.233    197.76548        19000 
   15000     301.8179   -41088.613   -33571.939    43.217602        20000 
   16000    298.88952   -41292.386   -33848.641   -4.1707096        21000 
   17000    302.00363   -41152.811   -33631.511    279.38832        22000 
   18000    302.99714   -41160.579   -33614.535    397.64462        23000 
   19000     295.9034   -41279.547   -33910.171    440.93754        24000 
   20000    301.13545   -41123.134   -33623.456    220.32326        25000 
   21000    296.64712   -41038.617   -33650.719    240.06362        26000 
   22000    299.24765   -41213.786   -33761.122    711.68039        27000 
   23000     297.7612    -41165.89   -33750.246     345.5234        28000 
   24000    300.49889   -41180.575    -33696.75     294.1492        29000 
   25000    300.93662   -41362.608   -33867.881    249.47016        30000 
   26000    299.37253   -41189.505   -33733.732    384.17125        31000 
   27000    300.45789   -41170.274    -33687.47    260.38732        32000 
   28000    298.96476   -41142.664   -33697.046    293.18127        33000 
   29000    296.08727   -41177.298   -33803.343    241.77379        34000 
   30000    300.39244   -41117.367   -33636.193    514.12632        35000 
   31000    305.65654   -41299.395   -33687.121    349.38274        36000 
   32000    297.49518   -41106.677   -33697.658    386.84217        37000 
   33000    300.19208   -41250.161   -33773.977     418.0562        38000 
   34000    301.31455   -41121.542   -33617.403       510.35        39000 
   35000    300.04806   -41161.784   -33689.187    151.68387        40000 
   36000     300.6111   -41183.155   -33696.535    366.20352        41000 
   37000    302.33558   -41091.465   -33561.898     156.1159        42000 
   38000    298.91651    -41112.89   -33668.473    13.684507        43000 
   39000    299.05826   -40902.122   -33454.175     194.7353        44000 
   40000    299.33975   -41125.491   -33670.534    526.98932        45000 
   41000    299.58469   -41252.609   -33791.551    300.72699        46000 
   42000    298.53761   -41149.583   -33714.603    386.09563        47000 
   43000    302.53945   -41057.156   -33522.511    330.02328        48000 
   44000    300.03049   -41164.873   -33692.713    663.13703        49000 
   45000    301.53825    -41370.47    -33860.76   0.84487069        50000 
   46000    298.24853   -41227.869   -33800.088    156.15199        51000 
   47000    301.00316   -41462.791   -33966.407    408.95691        52000 
   48000    298.71076   -41169.421   -33730.129    482.46779        53000 
   49000    301.74139   -41184.116   -33669.347     273.9547        54000 
   50000    299.42815   -41185.099    -33727.94    598.04582        55000 
   51000    303.57266   -41100.084   -33539.708    622.84385        56000 
   52000    297.97521   -41051.819   -33630.846    245.53888        57000 
   53000    299.99644   -41229.654   -33758.342    -110.4488        58000 
   54000     302.1852   -41165.522     -33639.7    553.81821        59000 
   55000    301.69853   -41231.996   -33718.294    562.86602        60000 
   56000    299.27142   -41168.913   -33715.657    134.85221        61000 
   57000    298.89615   -41348.637   -33904.728    153.36435        62000 
   58000    298.92618   -41087.162   -33642.505    256.85688        63000 
   59000    299.59932   -41045.487   -33584.065     305.7053        64000 
   60000     292.2857   -41217.407   -33938.129    318.31556        65000 
   61000    297.09879    -41299.15   -33900.003   -230.09131        66000 
   62000    304.23609   -41350.605   -33773.706    296.44719        67000 
   63000    303.40762   -41294.513   -33738.247    80.110156        68000 
   64000    296.11716   -41103.739   -33729.039    519.79955        69000 
   65000    298.48923   -41171.346   -33737.571   -64.193004        70000 
   66000    304.18347   -41222.934   -33647.346   -4.8959362        71000 
   67000    300.43374   -40977.907   -33495.705    570.47893        72000 
   68000    294.53717   -41228.289   -33892.939    259.12193        73000 
   69000     302.6897   -41217.641   -33679.255    525.38088        74000 
   70000    295.18226   -41294.079   -33942.663     486.1888        75000 
   71000    300.31915   -41331.568    -33852.22    262.84469        76000 
   72000    301.13958   -41080.913   -33581.132    162.76874        77000 
   73000    297.76112   -41229.905   -33814.263    343.06033        78000 
   74000    301.37159   -41107.035   -33601.476    279.18858        79000 
   75000     296.7851   -41181.631   -33790.297    143.77562        80000 
   76000    299.92366    -41241.89   -33772.391    262.74015        81000 
   77000    299.83996   -41141.491   -33674.076    147.75011        82000 
   78000    299.49682   -41222.843   -33763.974    426.27818        83000 
   79000     296.4544   -41049.484   -33666.386    243.97822        84000 
   80000    303.15691   -41371.506   -33821.483    57.420491        85000 
   81000     301.2059   -41079.098   -33577.665    181.55003        86000 
   82000    300.18892   -41139.234   -33663.129    334.78647        87000 
   83000    300.31659   -41196.337   -33717.052    230.92715        88000 
   84000    296.61926   -41187.232   -33800.028    383.01991        89000 
   85000    305.69993   -41309.191   -33695.836    295.46239        90000 
   86000    300.85335   -41091.512   -33598.859    189.53297        91000 
   87000    295.74153   -41030.328   -33664.983    524.04629        92000 
   88000    296.35351   -41073.224   -33692.639    277.13956        93000 
   89000    300.00267   -41220.647    -33749.18    187.89897        94000 
   90000    300.03678   -41182.006   -33709.689    395.70264        95000 
   91000    296.79433   -41064.273   -33672.709    600.05087        96000 
   92000    297.35007   -41100.904   -33695.499    256.40785        97000 
   93000    297.54787   -41259.608   -33849.277    350.24225        98000 
   94000    299.18248   -41169.759   -33718.719    25.183159        99000 
   95000     296.0431   -41357.307   -33984.452    145.31583       100000 
   96000    301.40611   -41180.721   -33674.302    428.10339       101000 
   97000    299.22875   -41048.728   -33596.536    223.64941       102000 
   98000    302.06158   -41265.273    -33742.53    371.99955       103000 
   99000     298.4061   -41370.766   -33939.061    311.22632       104000 
  100000    303.37825   -41298.005    -33742.47    126.15035       105000 
  101000    297.36177   -40990.392   -33584.696     202.1339       106000 
  102000    300.18556   -41314.788   -33838.766    347.07985       107000 
  103000    300.98393   -41209.589   -33713.684   -36.817677       108000 
  104000    295.82844   -41259.948   -33892.439    477.77193       109000 
  105000    301.14588   -41199.033   -33699.095    621.30258       110000 
  106000    303.96051    -41205.28   -33635.244    237.22327       111000 
  107000    299.48691   -41354.591   -33895.969    299.15236       112000 
  108000    300.24378   -41184.575   -33707.103    157.24517       113000 
  109000    299.33238   -41051.575   -33596.801    290.73922       114000 
  110000    301.66277   -41097.756   -33584.945    170.65868       115000 
  111000    299.53426    -41249.17   -33789.369     568.7859       116000 
  112000    299.00341   -41031.433   -33584.853    513.55626       117000 
  113000    303.46259   -41009.415    -33451.78    290.93888       118000 
  114000    298.82242   -41146.001   -33703.928    244.48046       119000 
  115000    296.81837    -41032.99   -33640.827    523.45689       120000 
  116000    300.44844   -41369.446   -33886.877    365.75507       121000 
  117000    297.63191    -41063.01   -33650.586    247.21953       122000 
  118000    302.56305   -41024.601   -33489.369    532.26186       123000 
  119000    299.01398   -41316.962   -33870.118    187.72734       124000 
  120000    301.65957   -41156.881   -33644.149     209.2988       125000 
  121000    303.12922   -41128.142   -33578.809    669.70119       126000 
  122000    297.93361    -41198.96   -33779.022    265.10016       127000 
  123000    301.48253   -41281.831   -33773.508    513.67292       128000 
  124000    301.43141   -41196.598   -33689.549    236.66116       129000 
  125000     297.9934   -41216.403   -33794.976     340.2051       130000 
  126000    300.48382   -41079.384   -33595.935   -20.985921       131000 
  127000    303.59547   -41227.414    -33666.47    226.06171       132000 
  128000    299.54958   -41198.981   -33738.798     72.68667       133000 
  129000    305.22854   -41267.924   -33666.309    207.45846       134000 
  130000    301.51573   -41282.074   -33772.925    347.64143       135000 
  131000    298.98816    -41131.66    -33685.46    338.36308       136000 
  132000    301.18208    -41492.43    -33991.59    415.34218       137000 
  133000    299.52781   -41381.359   -33921.718    250.63096       138000 
  134000    304.03339   -41175.999   -33604.148    380.85728       139000 
  135000    300.74463   -41263.521   -33773.576     304.5426       140000 
  136000    302.20345   -41279.765   -33753.489    323.84262       141000 
  137000    301.19326   -41143.629   -33642.511    190.67747       142000 
  138000    296.02924   -40974.527   -33602.017    546.53313       143000 
  139000    299.95406   -41018.459   -33548.203    375.34282       144000 
  140000    303.89391   -41137.499   -33569.122    234.24098       145000 
  141000    302.43256   -41170.693   -33638.711    176.35995       146000 
  142000    299.64055   -41211.025   -33748.577    200.90261       147000 
  143000     299.8465   -40927.097    -33459.52    119.91084       148000 
  144000    298.84061   -40977.868   -33535.342    218.61567       149000 
  145000    300.27796   -41265.728   -33787.406    392.91433       150000 
  146000    303.90786   -41083.758   -33515.034    493.91255       151000 
  147000    305.05719   -41312.746   -33715.398     627.8205       152000 
  148000    298.34266   -41215.919   -33785.794   -260.83689       153000 
  149000    303.50504   -41122.881   -33564.189    287.20521       154000 
  150000    296.46892   -41119.934   -33736.474    59.635467       155000 
  151000    300.51684   -41225.975   -33741.702     380.7928       156000 
  152000     297.5106   -41153.786   -33744.383    329.83703       157000 
  153000    296.83465   -41208.692   -33816.124    242.26556       158000 
  154000    305.56688   -41026.083   -33416.042    797.87485       159000 
  155000    297.77941   -41413.523   -33997.426    250.75186       160000 
  156000    300.77238   -41157.657   -33667.021     83.42318       161000 
  157000    297.39841   -41129.178   -33722.569    344.43923       162000 
  158000    303.03291     -41303.9   -33756.966    423.00291       163000 
  159000    302.85696   -41334.521   -33791.969    509.72012       164000 
  160000    294.74159   -41315.954   -33975.513    159.23612       165000 
  161000    299.92262   -41355.783    -33886.31    62.091956       166000 
  162000    299.87683   -41043.256   -33574.923    655.80804       167000 
  163000    297.17818   -41406.614    -34005.49    264.29411       168000 
  164000    302.36778   -41061.368   -33530.999    431.64229       169000 
  165000    299.12849   -41079.851   -33630.155    41.126007       170000 
  166000    301.15394   -41066.126   -33565.987     189.5119       171000 
  167000     299.2849     -41141.2   -33687.609    403.29083       172000 
  168000    303.71104   -41189.485   -33625.662    405.42204       173000 
  169000    301.07894    -41131.81   -33633.539    284.24757       174000 
  170000    302.89086   -41332.889   -33789.493    285.08143       175000 
  171000    293.72736   -41110.767   -33795.585    399.20647       176000 
  172000    299.92786   -41070.066   -33600.462    580.24296       177000 
  173000    298.78991   -41093.001   -33651.738     121.1263       178000 
  174000    299.46119   -41236.992   -33779.011    123.40222       179000 
  175000    300.19648   -41055.126   -33578.832    378.26049       180000 
  176000    299.73909   -41220.347   -33755.445    673.23304       181000 
  177000     301.4367   -41173.059   -33665.878    519.28689       182000 
  178000    294.95588   -41191.855   -33846.077    165.29637       183000 
  179000    300.42712    -41140.12   -33658.082     231.1186       184000 
  180000    298.87596   -41147.556   -33704.149    102.78385       185000 
  181000    298.41975   -41147.766   -33715.721    462.08721       186000 
  182000     298.5932   -41234.953   -33798.588    306.52117       187000 
  183000    300.25055   -41308.997   -33831.357    522.80716       188000 
  184000    298.13501   -41386.945   -33961.991   -13.762079       189000 
  185000    298.93203   -41239.126   -33794.323    362.19789       190000 
  186000    298.51438   -41197.555   -33763.154    96.419001       191000 
  187000    299.42586   -41274.175   -33817.073    222.66448       192000 
  188000    302.42857   -41334.372   -33802.489    313.85698       193000 
  189000    303.23051   -41118.574   -33566.719    517.82489       194000 
  190000    297.24793   -41228.568   -33825.707   -32.472443       195000 
  191000    301.24746   -41227.254   -33724.786    334.24182       196000 
  192000    300.22747   -41093.674   -33616.608    383.20228       197000 
  193000    298.53625   -41016.506    -33581.56    363.36918       198000 
  194000    299.10255   -41082.353   -33633.303    357.11041       199000 
  195000    297.06669   -41393.677   -33995.329    206.76307       200000 
  196000    299.95855   -41147.462   -33677.094    159.37421       201000 
  197000    299.57323   -40954.584   -33493.812    320.97787       202000 
  198000    302.56387   -41146.763    -33611.51    373.49416       203000 
  199000    297.40365   -41341.432   -33934.692    105.24517       204000 
  200000    301.33266   -41142.733   -33638.143    183.38514       205000 
  201000    301.89393   -40935.938    -33417.37     646.3126       206000 
  202000    299.10586   -41034.797   -33585.665    109.77093       207000 
  203000    300.82653   -41156.099   -33664.114    181.68561       208000 
  204000    300.72747   -41229.408    -33739.89   -73.726102       209000 
  205000    298.31904   -41236.111   -33806.574    37.786537       210000 
  206000    296.56018   -41180.385   -33794.652    333.33413       211000 
  207000    301.28922    -41113.24   -33609.732    466.88461       212000 
  208000    299.47062    -41303.75   -33845.533    141.62493       213000 
  209000    305.26137    -41138.65   -33536.217    213.59059       214000 
  210000     302.4016   -41132.704   -33601.493    337.87908       215000 
  211000    297.29442   -41144.283   -33740.265    336.38334       216000 
  212000    299.91155   -41259.657    -33790.46    73.773262       217000 
  213000    294.40336   -41369.449   -34037.431    264.05862       218000 
  214000    298.98536   -41169.286   -33723.155    289.04244       219000 
  215000    300.74208   -41300.347   -33810.466    296.44146       220000 
  216000    298.19643   -41095.349   -33668.866    134.61311       221000 
  217000    299.93214   -41075.131   -33605.421    231.81458       222000 
  218000    295.10793   -41311.418   -33961.852    71.244552       223000 
  219000    296.87353   -41138.358   -33744.821    295.17007       224000 
  220000    299.76129   -41147.197   -33681.742     354.2011       225000 
  221000    302.75846    -41236.38   -33696.281    285.16388       226000 
  222000    298.92956   -41101.825   -33657.083    232.85093       227000 
  223000    304.01649   -41069.807   -33498.377    209.07644       228000 
  224000    299.33073   -41080.092    -33625.36     315.0491       229000 
  225000    296.76236   -41108.619    -33717.85    70.549026       230000 
  226000    298.75439   -41120.768   -33680.389     217.5529       231000 
  227000    301.06829   -41109.613   -33611.607    275.40174       232000 
  228000    303.09348   -41156.083    -33607.64     395.7095       233000 
  229000    299.31021   -41119.946   -33665.725    418.31201       234000 
  230000    301.27827   -41375.429   -33872.193    434.71636       235000 
  231000    302.52592   -41216.659   -33682.351    552.30076       236000 
  232000    299.25282   -41182.008   -33729.216    486.34744       237000 
  233000    301.09718   -41324.708   -33825.983    463.49494       238000 
  234000    298.31477   -41251.655   -33822.224   -168.26265       239000 
  235000    295.91617   -41222.838   -33853.144    237.87503       240000 
  236000    299.24088   -41119.059   -33666.564    260.40834       241000 
  237000    302.24456   -41247.576   -33720.276     247.1413       242000 
  238000    299.51658   -41093.717   -33634.357    691.17951       243000 
  239000    294.51051   -41212.219   -33877.532    484.27393       244000 
  240000    303.43872   -41203.592   -33646.551    100.34326       245000 
  241000    294.91164   -41249.562   -33904.886    388.62845       246000 
  242000    299.90644    -41190.69    -33721.62    50.798664       247000 
  243000    298.78453   -41066.638   -33625.508    521.11768       248000 
  244000    300.57275   -41225.059   -33739.394    441.04996       249000 
  245000    298.50147   -41141.185   -33707.105    321.81207       250000 
  246000    294.76994     -41400.3   -34059.152    319.35148       251000 
  247000    299.28938   -41273.602     -33819.9    214.37734       252000 
  248000    304.25333   -41154.501   -33577.173    456.91267       253000 
  249000    293.87907   -41169.357   -33850.396    497.12277       254000 
  250000    297.59583   -41154.095    -33742.57    963.11558       255000 
  251000    299.29015    -41177.41   -33723.688    320.38771       256000 
  252000    303.57745   -41327.103   -33766.608    583.53301       257000 
  253000    297.30535   -41410.181    -34005.89    471.14565       258000 
  254000    292.34415   -41218.053   -33937.319    373.56433       259000 
  255000    300.52249   -41026.723    -33542.31    175.66096       260000 
  256000    299.52846   -41258.396   -33798.739   -202.15863       261000 
  257000    301.18704   -41205.381   -33704.417     213.1655       262000 
  258000    298.46511   -41128.216   -33695.041     74.61917       263000 
  259000    305.90883   -41226.556   -33607.998     152.2834       264000 
  260000    300.39539   -41038.814   -33557.567    359.17322       265000 
  261000    298.14295   -41170.136   -33744.985    605.92657       266000 
  262000    295.40632   -41313.578   -33956.582    310.73612       267000 
  263000    300.28026   -41191.754   -33713.374    383.48715       268000 
  264000    299.91303    -41234.44   -33765.206    472.04944       269000 
  265000    300.63882   -41111.862   -33624.552    420.74036       270000 
  266000    296.63242   -41187.045   -33799.513    382.11364       271000 
  267000    303.52979   -41224.574   -33665.265     319.9773       272000 
  268000    304.69917   -41295.175   -33706.744   -10.868735       273000 
  269000    296.11214   -41109.471   -33734.897    47.473907       274000 
  270000    291.93728    -41090.44   -33819.839    239.88549       275000 
  271000    299.27342   -41238.174   -33784.868    8.6093393       276000 
  272000    304.28907   -41171.573   -33593.354    668.54033       277000 
  273000    302.77279   -41176.682   -33636.226     678.0027       278000 
  274000    299.09563   -41333.149   -33884.272    222.35598       279000 
  275000     300.8427   -41019.497    -33527.11    10.334573       280000 
  276000    300.34092   -40989.406   -33509.515    38.441373       281000 
  277000    299.60529   -41156.482   -33694.911    81.582736       282000 
  278000    294.95081   -41130.466   -33784.814    328.99422       283000 
  279000    299.36614   -41188.807   -33733.192    348.48509       284000 
  280000    296.19561    -41232.16   -33855.506    323.84944       285000 
  281000    297.68594   -41205.495   -33791.725    168.87088       286000 
  282000    299.79637   -41153.562   -33687.233     213.7607       287000 
  283000     300.1355   -41165.587   -33690.812     233.9877       288000 
  284000    301.24581   -41168.694   -33666.267    657.00403       289000 
  285000    300.61164   -41271.621   -33784.988    151.88987       290000 
  286000    301.80293   -41272.017   -33755.716    294.66037       291000 
  287000    295.45807    -41240.35   -33882.064    143.91042       292000 
  288000    296.20019   -41131.108    -33754.34    214.14202       293000 
  289000    299.18613   -41255.216   -33804.085    252.18095       294000 
  290000    300.46386   -41137.568   -33654.616    128.03306       295000 
  291000    298.03025   -41248.436   -33826.092    157.91031       296000 
  292000    301.19703   -41193.908   -33692.696    525.75562       297000 
  293000    298.13553   -41203.228   -33778.262    655.07293       298000 
  294000    296.95912   -41159.971   -33764.302    91.167189       299000 
  295000    297.87327   -41164.617   -33746.182    369.26279       300000 
  296000    296.64211   -40977.514   -33589.741    -49.55673       301000 
  297000    304.95212   -41136.606   -33541.874    294.25278       302000 
  298000     298.1608   -41156.976   -33731.381   -141.99324       303000 
  299000    297.65622   -41066.191   -33653.161    290.92027       304000 
  300000    297.59252   -41155.744   -33744.301    475.45709       305000 
  301000      295.522   -41314.934   -33955.057   -64.758324       306000 
  302000    301.58828   -41377.533   -33866.577    431.57648       307000 
  303000    301.03781   -41081.483   -33584.236    253.69008       308000 
  304000     302.1795   -40947.446   -33421.766    222.28823       309000 
  305000    302.15289   -41297.449   -33772.432    274.54806       310000 
  306000    298.17388   -41224.162    -33798.24    173.64826       311000 
  307000    298.01854   -41120.423    -33698.37   -32.456022       312000 
  308000    298.92941   -41373.813   -33929.075    411.48535       313000 
  309000    298.77239    -41202.32   -33761.493    543.90735       314000 
  310000    300.78053    -41376.15   -33885.311      233.039       315000 
  311000     302.6972    -41139.72   -33601.147    230.74644       316000 
  312000    291.96754    -41359.41   -34088.055    499.74134       317000 
  313000    301.20013   -41248.942   -33747.652    398.83528       318000 
  314000    300.99991   -41207.234   -33710.931    89.673112       319000 
  315000    296.19894   -41241.661   -33864.925     163.8034       320000 
  316000    300.05485    -41261.84   -33789.073    372.68207       321000 
  317000    297.95733   -41366.588   -33946.059    195.36035       322000 
  318000    300.51682   -41245.638   -33761.366    659.92211       323000 
  319000    299.59869   -41440.298   -33978.892    693.87215       324000 
  320000    299.97283   -41314.518   -33843.795    403.78303       325000 
  321000    298.85172   -41272.517   -33829.715    408.39411       326000 
  322000    300.91514   -41242.943   -33748.752    116.78059       327000 
  323000    297.99792   -41335.973   -33914.434    285.93172       328000 
  324000    295.14895   -41364.981   -34014.394    256.82376       329000 
  325000    299.71365   -40932.233   -33467.964    22.925574       330000 
  326000    300.14204   -41401.741   -33926.803    261.22237       331000 
  327000    298.65917   -41174.775   -33736.768    252.26871       332000 
  328000    300.08814   -41302.019   -33828.424    311.38105       333000 
  329000    297.07794   -41296.273   -33897.646    54.214496       334000 
  330000    297.70843   -41201.741   -33787.411     404.4146       335000 
  331000    300.52441   -41086.323   -33601.862     443.1227       336000 
  332000    299.16487    -41311.88   -33861.278    253.81941       337000 
  333000    298.55766   -41129.078   -33693.598    450.06143       338000 
  334000    297.25935   -41257.985   -33854.839    116.56129       339000 
  335000    299.58067   -41022.988   -33562.031    358.84962       340000 
  336000    291.86336   -41034.059   -33765.299    474.89325       341000 
  337000    295.30506    -41154.12   -33799.646    204.36249       342000 
  338000     301.2063   -41153.469   -33652.026    475.86991       343000 
  339000    295.31442   -41019.549   -33664.841    330.00603       344000 
  340000    296.39844   -41260.652   -33878.947    20.571412       345000 
  341000      301.381   -41270.443   -33764.649    344.78058       346000 
  342000    298.91466   -41114.907   -33670.537    468.30903       347000 
  343000    298.17226   -41194.059   -33768.178    92.907223       348000 
  344000    300.15834   -41131.897   -33656.553    221.34629       349000 
  345000     306.1875   -41258.006   -33632.508   -10.983004       350000 
  346000    298.89273   -41314.291   -33870.467    363.15932       351000 
  347000    304.58124   -41195.486   -33609.991    142.20641       352000 
  348000    297.59366   -40906.076   -33494.604    50.173142       353000 
  349000    302.09905   -41023.811   -33500.135    535.29877       354000 
  350000    299.94558   -41151.616   -33681.571    354.54418       355000 
  351000    298.59546    -41227.52     -33791.1    75.234291       356000 
  352000    296.34743    -41160.17   -33779.736    267.48554       357000 
  353000    298.05236   -41188.478   -33765.582    452.31662       358000 
  354000    300.03682   -41248.577   -33776.259    308.73321       359000 
  355000     292.4909   -41172.675   -33888.287    130.84365       360000 
  356000    300.33785   -41161.352   -33681.537    438.43635       361000 
  357000    304.01589   -41102.932   -33531.517      376.208       362000 
  358000    302.63228   -41143.652   -33606.695    326.34314       363000 
  359000    298.64748   -41110.122   -33672.405    313.36232       364000 
  360000    301.66926   -41147.073   -33634.101    268.93906       365000 
  361000    300.08237   -41174.718   -33701.267   -21.951409       366000 
  362000    300.16085   -41044.777    -33569.37    386.31154       367000 
  363000    298.08408   -41340.909   -33917.224    331.15919       368000 
  364000    303.57729   -41036.682   -33476.191    117.98981       369000 
  365000    296.90398   -41178.378   -33784.083    138.92969       370000 
  366000    302.52817   -41256.881   -33722.517    42.896818       371000 
  367000    298.64142   -41057.342   -33619.777    233.55704       372000 
  368000    298.02311   -41133.659   -33711.492    267.81072       373000 
  369000    301.62917   -41195.865   -33683.891    572.35006       374000 
  370000    299.07132   -41243.946   -33795.674    280.45847       375000 
  371000     302.3107   -41202.906   -33673.958    346.66051       376000 
  372000    302.15043   -41303.386    -33778.43    868.55528       377000 
  373000     301.4589   -41242.858   -33735.124    472.41597       378000 
  374000    299.62974    -41416.51   -33954.331    58.419406       379000 
  375000     300.9267   -41198.224   -33703.744    621.15384       380000 
  376000    298.40005   -41070.978   -33639.424    235.40946       381000 
  377000    299.49697   -41207.629   -33748.756    651.79787       382000 
  378000    298.05217   -41276.869   -33853.978    477.59666       383000 
  379000    300.77972   -41187.699    -33696.88    204.27624       384000 
  380000    295.05132   -41255.476   -33907.321    301.07912       385000 
  381000    301.61563    -41201.81   -33690.173    247.04194       386000 
  382000     297.9299   -40999.086    -33579.24    140.51991       387000 
  383000    294.68774   -41147.782   -33808.682    88.539698       388000 
  384000     303.2025   -41127.668   -33576.511    148.01246       389000 
  385000      297.401   -41308.882   -33902.209    86.870442       390000 
  386000    301.34807   -41208.338   -33703.364    289.59655       391000 
  387000    296.88805   -41292.983   -33899.084    164.15569       392000 
  388000    304.64816   -41228.877   -33641.716    436.73148       393000 
  389000    298.69442   -41233.884   -33794.999    19.196936       394000 
  390000    298.88905    -41196.52   -33752.787    356.53981       395000 
  391000    299.86317   -41144.852    -33676.86    386.24025       396000 
  392000    292.83457   -41011.234   -33718.287    125.12632       397000 
  393000    302.74408   -41116.751   -33577.011    625.88083       398000 
  394000    304.04938   -41138.359    -33566.11    547.39605       399000 
  395000    299.61189   -41280.575    -33818.84    486.70648       400000 
  396000    295.23439   -41200.749   -33848.034    20.279081       401000 
  397000    297.73743   -41363.293   -33948.241    402.05446       402000 
  398000    300.64532    -41044.52   -33557.048    516.87951       403000 
  399000    304.07005    -41163.62   -33590.857    412.75176       404000 
  400000    302.81062   -41222.715   -33681.317    233.09352       405000 
  401000    298.47921   -41139.015    -33705.49  -0.24682468       406000 
  402000    299.28484   -41180.389     -33726.8     217.5899       407000 
  403000    295.87039   -41199.738   -33831.184    445.00933       408000 
  404000    298.99714   -41062.866   -33616.442    431.09351       409000 
  405000    294.69233   -41176.782   -33837.567    427.70073       410000 
  406000    296.67573    -41311.62   -33923.009    344.87391       411000 
  407000    299.00114   -41175.639   -33729.115   -28.725726       412000 
  408000    299.94106   -41082.568   -33612.636    55.137847       413000 
  409000    301.46924   -40947.969   -33439.978    387.92941       414000 
  410000    298.93971   -41162.525    -33717.53    143.80506       415000 
  411000    299.26235   -41301.238   -33848.209     308.1294       416000 
  412000    302.83204   -41121.548   -33579.617    245.87317       417000 
  413000     297.6851   -41129.102   -33715.354    62.001837       418000 
  414000    298.28349   -41146.479   -33717.828    146.52943       419000 
  415000    301.97123    -41113.56   -33593.066   -36.459828       420000 
  416000    302.03431   -41377.906   -33855.841    471.78791       421000 
  417000    302.06121   -41366.203   -33843.469    172.26266       422000 
  418000    301.37792   -41134.292   -33628.575    392.77447       423000 
  419000    295.97282   -41304.322   -33933.217    406.83956       424000 
  420000    299.67463   -41294.064   -33830.767    132.88117       425000 
  421000    302.63772   -41356.589   -33819.497     182.3599       426000 
  422000    299.86682   -41244.054    -33775.97    40.201987       427000 
  423000    300.24125   -41232.622   -33755.214    169.07647       428000 
  424000     296.8666   -41328.228   -33934.864    151.98825       429000 
  425000    300.78509    -41198.19   -33707.237    33.475494       430000 
  426000    297.77923   -41153.132   -33737.039     65.70147       431000 
  427000    301.03757    -40933.67   -33436.429     418.5704       432000 
  428000    302.56286   -41054.677   -33519.449    522.05086       433000 
  429000    296.55813   -41204.796   -33819.114    360.62657       434000 
  430000    297.53665   -41220.775   -33810.724    358.27811       435000 
  431000    304.41411   -41248.834   -33667.502    167.03972       436000 
  432000    298.41887    -41279.34   -33847.317    214.20576       437000 
  433000    301.27855   -41044.322    -33541.08    284.49599       438000 
  434000    298.34983    -41120.91   -33690.607    302.06371       439000 
  435000    299.75979   -41294.937   -33829.519     85.44353       440000 
  436000    297.94321    -41127.66   -33707.484    247.72834       441000 
  437000    299.67163   -41239.562   -33776.339   -13.115308       442000 
  438000    294.80547   -41163.412    -33821.38    231.43207       443000 
  439000    295.42794     -41111.1   -33753.565     418.9277       444000 
  440000    296.60223   -41032.757   -33645.976    327.07181       445000 
  441000    297.94346   -41247.216   -33827.033    90.519246       446000 
  442000    298.43881   -41237.093   -33804.574    166.92779       447000 
  443000    298.37042    -41424.33   -33993.513    216.93562       448000 
  444000    301.18386   -41263.865   -33762.981    114.64689       449000 
  445000    299.47756   -41427.265   -33968.876    576.88811       450000 
  446000    301.69251   -41350.222    -33836.67    450.08165       451000 
  447000    301.81107   -41203.225    -33686.72    138.94241       452000 
  448000    298.19953   -41228.758   -33802.198    354.71169       453000 
  449000    301.54843   -41244.428   -33734.465    593.40844       454000 
  450000    300.02226   -41097.435    -33625.48    427.90166       455000 
  451000    300.07975   -41184.758   -33711.371    279.15498       456000 
  452000    298.54175   -41097.246   -33662.163    260.12101       457000 
  453000    298.06438    -41235.43   -33812.236    356.36431       458000 
  454000    300.75319   -41266.878    -33776.72    284.96195       459000 
  455000    301.13857   -41286.897   -33787.141    399.96351       460000 
  456000    299.04442   -41195.772    -33748.17    408.85466       461000 
  457000    300.45536   -41156.397   -33673.656    263.45097       462000 
  458000    297.86394   -41267.218   -33849.016   -109.30228       463000 
  459000    297.65508   -41071.249   -33658.248    262.99936       464000 
  460000    299.57788   -41215.351   -33754.464    144.24793       465000 
  461000    294.84304   -41081.285   -33738.317    294.36763       466000 
  462000     296.5518   -41161.765   -33776.241    566.49404       467000 
  463000    302.41494   -41161.465   -33629.921    103.15331       468000 
  464000    301.65878   -41134.402    -33621.69    360.75342       469000 
  465000    302.48134   -41137.415   -33604.218    649.53096       470000 
  466000    299.70832   -41227.203   -33763.067    355.73178       471000 
  467000    301.00947   -41262.949   -33766.408    95.092239       472000 
  468000    302.70553   -41103.373   -33564.592    674.64208       473000 
  469000    297.26594   -41210.257   -33806.948    48.544182       474000 
  470000    295.05731   -41230.069   -33881.765    208.23859       475000 
  471000    303.58486   -41199.836   -33639.156    285.53476       476000 
  472000     300.7365   -41127.903    -33638.16    410.19577       477000 
  473000    300.02536   -41178.567   -33706.535    41.708849       478000 
  474000    303.52226   -41090.397   -33531.275    251.69015       479000 
  475000    299.27129   -41172.008   -33718.756    176.10771       480000 
  476000     302.2911   -41123.807   -33595.348    433.20474       481000 
  477000    298.12294   -41238.157   -33813.504    97.373683       482000 
  478000    297.53786   -41200.131    -33790.05    238.42246       483000 
  479000    297.63763   -41145.795   -33733.229    351.39071       484000 
  480000    300.52782   -41210.185    -33725.64    888.43114       485000 
  481000    299.89602   -41172.661    -33703.85     401.5618       486000 
  482000    297.78931   -41133.606   -33717.262    230.90825       487000 
  483000    296.71499   -41192.999   -33803.411    59.015172       488000 
  484000     294.9311   -41191.974   -33846.812    417.75305       489000 
  485000    298.39161   -41311.751   -33880.407    58.310316       490000 
  486000    298.91876   -41104.042   -33659.569    385.20925       491000 
  487000    295.70671   -41145.884   -33781.407    18.507578       492000 
  488000    301.57789    -41341.38   -33830.682   -193.31116       493000 
  489000    298.99851   -41185.185   -33738.727     258.5154       494000 
  490000    297.64219   -41230.825   -33818.145    305.11243       495000 
  491000    303.58927   -41301.219   -33740.428    548.32608       496000 
  492000    298.30744   -41197.519   -33768.271    294.61013       497000 
  493000    305.06512   -41145.876   -33548.331    32.495991       498000 
  494000    304.01578   -41118.227   -33546.815    558.23231       499000 
  495000    298.39066   -41108.608   -33677.287    322.56506       500000 
  496000    297.00835   -41080.857   -33683.963    489.55201       501000 
  497000    295.04404   -40978.558   -33630.584    504.84816       502000 
  498000    298.06211    -41159.54   -33736.403    215.71815       503000 
  499000    297.33622    -41057.34    -33652.28    232.06222       504000 
  500000    299.95114   -41180.877   -33710.693    633.33212       505000 
  501000    296.60281   -41279.212   -33892.417    504.11303       506000 
  502000    299.02634   -41077.753   -33630.601    452.66427       507000 
  503000    298.34072   -41260.793   -33830.717     128.5203       508000 
  504000    297.04251   -41250.142   -33852.397    481.98185       509000 
  505000    298.15614   -41097.579   -33672.099    230.07105       510000 
  506000    296.84332   -41145.642   -33752.858    207.04762       511000 
  507000    301.51869   -41128.493    -33619.27    528.07603       512000 
  508000     301.3148   -41391.517   -33887.372    104.99045       513000 
  509000     302.7124   -41117.118   -33578.166    389.20518       514000 
  510000    299.27044   -41257.744   -33804.513     370.5874       515000 
  511000    303.08866   -40955.052    -33406.73    358.11034       516000 
  512000    303.22469   -41170.382   -33618.671    304.70956       517000 
  513000    295.38829   -41231.277    -33874.73    453.16908       518000 
  514000    302.59292   -41223.588   -33687.612    473.39618       519000 
  515000    293.50718   -41272.689    -33962.99    78.775153       520000 
  516000    304.52583   -41166.255   -33582.141   -6.6248451       521000 
  517000    304.51937   -41077.373   -33493.419    174.36978       522000 
  518000    298.06442   -41265.836    -33842.64    111.16027       523000 
  519000    298.68339   -41217.203   -33778.593    454.90687       524000 
  520000    300.53057   -41190.757   -33706.143    245.22767       525000 
  521000    300.57098    -41225.79    -33740.17    88.961817       526000 
  522000    294.90537   -41122.602   -33778.082    457.09228       527000 
  523000    298.36865   -41055.222    -33624.45    449.44705       528000 
  524000    296.60496   -41234.734   -33847.886     290.3176       529000 
  525000    301.23348   -41129.243   -33627.123     223.2541       530000 
  526000    304.45482   -41296.938   -33714.591    120.41558       531000 
  527000     299.7512   -41286.377   -33821.173    405.33004       532000 
  528000      300.668   -41250.601   -33762.564   -43.411774       533000 
  529000    301.43421    -41140.75   -33633.631    421.94876       534000 
  530000    294.27459   -41229.441    -33900.63    230.93855       535000 
  531000    295.04863   -41239.167   -33891.079    607.62869       536000 
  532000    303.08917   -41083.172   -33534.837    125.69707       537000 
  533000    300.41545   -41131.425   -33649.677    110.92989       538000 
  534000    299.26045   -41213.657   -33760.675    453.36232       539000 
  535000    295.80864   -41155.739   -33788.723    432.94294       540000 
  536000    300.16113   -41197.854    -33722.44    188.27354       541000 
  537000    300.19945   -41250.792   -33774.425    117.09098       542000 
  538000    298.11698   -41067.168   -33642.663    504.60731       543000 
  539000    303.60338   -41255.227   -33694.086    372.43071       544000 
  540000     294.7271   -41332.118   -33992.037    205.04289       545000 
  541000    300.69676    -41365.98   -33877.227    522.36656       546000 
  542000     301.2413   -41180.323   -33678.008    185.79216       547000 
  543000    297.11462   -41142.635   -33743.094    245.43387       548000 
  544000    297.46441   -41359.852     -33951.6    88.317989       549000 
  545000    296.00499   -41295.338   -33923.432    140.04122       550000 
  546000    302.26684   -41037.637   -33509.781     308.4206       551000 
  547000     301.8908   -41250.026   -33731.536    234.94841       552000 
  548000    298.71263   -40923.502   -33484.163    326.71479       553000 
  549000    299.17631   -41194.961   -33744.074    403.32453       554000 
  550000    296.88476   -41072.862   -33679.046    195.62667       555000 
  551000    299.54204   -41303.649   -33843.654    237.96358       556000 
  552000    302.99583   -41386.852   -33840.842    214.12764       557000 
  553000    295.61433   -41270.612   -33908.435    192.41772       558000 
  554000    300.33043   -41222.306   -33742.676     282.5416       559000 
  555000    295.67907   -41249.924   -33886.135    333.81084       560000 
  556000    290.99704   -41133.026   -33885.842    75.882216       561000 
  557000     300.4546   -41208.189   -33725.467    540.74737       562000 
  558000    300.94253   -41429.788   -33934.914    634.20964       563000 
  559000    300.56011   -41116.229   -33630.879    188.59864       564000 
  560000    302.59986   -41280.851   -33744.702     124.2891       565000 
  561000    296.34682   -41010.414   -33629.995    426.29915       566000 
  562000     291.5425   -41272.372   -34011.602     361.4545       567000 
  563000    296.83913   -41143.602   -33750.922    410.02843       568000 
  564000    295.99552   -41171.074   -33799.404    223.98001       569000 
  565000    300.59869   -41141.079   -33654.768    189.61718       570000 
  566000    304.77211   -41167.145   -33576.897    30.422851       571000 
  567000    303.09268   -41189.744   -33641.321    344.19417       572000 
  568000    297.58694   -41071.362   -33660.058    -70.55712       573000 
  569000    302.54874   -41104.138   -33569.262    282.82236       574000 
  570000    298.77489   -41168.205   -33727.315    126.38502       575000 
  571000    299.97494   -41150.716    -33679.94    333.61064       576000 
  572000    300.71219   -41060.059   -33570.922    375.92252       577000 
  573000    301.90038   -41139.894   -33621.165    122.22197       578000 
  574000    294.84632   -41016.062   -33673.012    186.84684       579000 
  575000    300.75811    -41282.53    -33792.25    422.99676       580000 
  576000     301.9336   -41224.272   -33704.716     608.8607       581000 
  577000    299.46752   -41195.143   -33737.003    40.272708       582000 
  578000    300.88991   -41061.746   -33568.183    556.78903       583000 
  579000    298.75647   -41284.309   -33843.878    397.51083       584000 
  580000    297.27587   -41331.257     -33927.7    391.06169       585000 
  581000    302.75623   -41196.825   -33656.782    312.34394       586000 
  582000    301.35556   -41375.976   -33870.816    718.31945       587000 
  583000    292.50028   -41168.442    -33883.82    303.19335       588000 
  584000    298.43119   -41074.303   -33641.973    398.12737       589000 
  585000    299.86357    -41165.29   -33697.287    541.17148       590000 
  586000    303.78691   -41168.083    -33602.37     536.8207       591000 
  587000    301.46651   -41167.044   -33659.121        185.7       592000 
  588000    302.28436   -41198.821    -33670.53    296.64691       593000 
  589000     297.1142   -41098.287   -33698.757    361.53679       594000 
  590000    298.20015   -41074.412   -33647.836    142.03223       595000 
  591000    298.82028   -41072.773   -33630.754    117.03832       596000 
  592000    300.28365   -41221.009   -33742.545    409.48532       597000 
  593000      302.201   -41363.396   -33837.181    181.71979       598000 
  594000    298.77703   -41006.192   -33565.249    375.62068       599000 
  595000    301.69335   -41244.505   -33730.933    266.84208       600000 
  596000    296.84679   -41097.289   -33704.418    379.76644       601000 
  597000    293.61614   -41092.935   -33780.523    410.73719       602000 
  598000    304.53508   -41250.018   -33665.672    351.18278       603000 
  599000    300.02205   -41290.019   -33818.069    148.99455       604000 
  600000    295.83402   -41098.128    -33730.48    409.17718       605000 
  601000    300.40272   -41205.975   -33724.545    182.22383       606000 
  602000    296.80192   -41094.276   -33702.522    586.75981       607000 
  603000    303.45032   -41233.791   -33676.462    14.341535       608000 
  604000    301.15682   -41430.905   -33930.695    731.04255       609000 
  605000    296.85325   -41392.533   -33999.502    341.88904       610000 
  606000    300.29988   -41219.672   -33740.803    577.52181       611000 
  607000    300.76683   -41371.665   -33881.166    443.99061       612000 
  608000    296.43434   -41047.742   -33665.144    421.69915       613000 
  609000    299.92857   -41301.626   -33832.005    43.799321       614000 
  610000    296.64162   -41151.053   -33763.292    220.27144       615000 
  611000    300.95349   -41178.518   -33683.371    263.96171       616000 
  612000    295.10007   -41379.167   -34029.797    313.84459       617000 
  613000    298.97597     -41227.2   -33781.303    44.747552       618000 
  614000    297.35513   -41369.355   -33963.824    352.52975       619000 
  615000    303.03576   -41192.376   -33645.371    274.39212       620000 
  616000    298.72099   -41111.017    -33671.47    365.03049       621000 
  617000    300.20502   -41359.709   -33883.203    47.064849       622000 
  618000    299.76023   -41241.452   -33776.023    588.46547       623000 
  619000    298.45979   -41169.903   -33736.861    150.34548       624000 
  620000    302.46062   -41149.706   -33617.024    232.75184       625000 
  621000    296.98695   -41035.108   -33638.747    536.43389       626000 
  622000    299.52867   -41011.817   -33552.155    409.48788       627000 
  623000    300.22825   -41254.409   -33777.324    387.32214       628000 
  624000    301.76007   -40970.478   -33455.244    240.05443       629000 
  625000    300.25539   -41024.437   -33546.676    243.36083       630000 
  626000    300.24631   -41180.804    -33703.27    474.43004       631000 
  627000     297.2276   -41177.698   -33775.344    256.51395       632000 
  628000    300.34108   -41178.102   -33698.207    295.61797       633000 
  629000    299.84655   -41268.621   -33801.042    108.35088       634000 
  630000     300.2615   -41178.536   -33700.623    192.72655       635000 
  631000    298.61182   -41295.831   -33859.003    252.59019       636000 
  632000    293.41067   -41309.124   -34001.829    73.953847       637000 
  633000    292.65872       -41093   -33804.432      221.476       638000 
  634000    299.96359   -41308.282   -33837.789    324.03901       639000 
  635000       300.15   -41303.002   -33827.865    103.83338       640000 
  636000    298.80255   -41359.039   -33917.461     381.2182       641000 
  637000    296.77668    -41141.46   -33750.336    366.76207       642000 
  638000     300.1821   -41165.651   -33689.715     758.0078       643000 
  639000    295.83819   -41280.285   -33912.533    414.31239       644000 
  640000    296.87321   -41086.743   -33693.214    312.15052       645000 
  641000    298.96874   -41281.016   -33835.298    504.50343       646000 
  642000     301.6375   -41018.774   -33506.592    431.31639       647000 
  643000    302.09988   -41136.861   -33613.164    247.24751       648000 
  644000    299.77881    -41195.16   -33729.268    405.23058       649000 
  645000    301.08093   -41180.616   -33682.296    385.52885       650000 
  646000    296.74929   -41216.763    -33826.32    536.17084       651000 
  647000    293.35661    -41198.62   -33892.671    451.08493       652000 
  648000    302.07501   -41230.652   -33707.574     291.4504       653000 
  649000    301.67713   -41290.943   -33777.775    331.39688       654000 
  650000    300.29002   -41462.978   -33984.355    143.62307       655000 
  651000    294.97803   -41259.832   -33913.502    43.517276       656000 
  652000    300.41834   -41089.714   -33607.895    188.57883       657000 
  653000    294.03022   -41091.099   -33768.374    215.36206       658000 
  654000      302.857    -41120.92   -33578.367    253.38124       659000 
  655000    298.89575   -41267.324   -33823.425    324.59398       660000 
  656000    300.97682   -41250.634   -33754.907    521.17781       661000 
  657000    299.35228   -41057.279    -33602.01    279.86502       662000 
  658000    300.64801   -41003.109    -33515.57    582.23315       663000 
  659000    298.94076   -41083.216   -33638.195    390.08928       664000 
  660000    297.67781   -41216.097    -33802.53    383.80703       665000 
  661000    304.58485   -41209.569   -33623.984    460.39197       666000 
  662000    299.01017   -41157.694   -33710.945    309.33416       667000 
  663000    298.09583   -41178.617    -33754.64    249.49875       668000 
  664000    305.35996   -41269.563   -33664.674    563.27978       669000 
  665000    302.46859   -41200.577   -33667.697    128.64607       670000 
  666000    300.53905   -41282.412   -33797.587    291.22402       671000 
  667000    294.50469   -41218.602   -33884.061    115.61604       672000 
  668000     293.8263   -40988.776    -33671.13    153.95983       673000 
  669000    303.77432   -40986.813   -33421.415    477.26038       674000 
  670000    301.48393   -41170.631   -33662.274    411.98464       675000 
  671000    299.05362   -41049.392   -33601.561    95.366527       676000 
  672000    300.33294   -41384.593   -33904.901    323.18526       677000 
  673000    297.94622   -41116.864   -33696.612    191.90345       678000 
  674000    300.82935   -41258.387   -33766.332    495.45757       679000 
  675000    296.11907   -41289.022   -33914.275    149.44539       680000 
  676000    296.88937   -41158.109   -33764.178    71.501856       681000 
  677000     294.2412   -41231.058   -33903.079    292.51516       682000 
  678000    301.90113   -41203.236   -33684.488      496.573       683000 
  679000    300.20118   -41149.794   -33673.384   -159.97902       684000 
  680000    298.67915   -40999.512   -33561.007     254.9762       685000 
  681000    302.30175   -41182.438   -33653.713    218.02942       686000 
  682000    298.77967   -41057.504   -33616.495    236.48814       687000 
  683000    301.47834   -40917.283   -33409.066    235.08417       688000 
  684000    301.84083   -41082.077   -33564.832    451.64624       689000 
  685000    298.68489   -41160.651   -33722.002     127.1858       690000 
  686000    296.85539   -41285.814   -33892.729    454.42754       691000 
  687000    299.01753   -41124.723    -33677.79    65.243712       692000 
  688000    301.06091   -41207.958   -33710.136    466.88882       693000 
  689000    299.88197   -41165.777   -33697.316    81.428358       694000 
  690000    297.42419   -41190.787   -33783.536    389.77803       695000 
  691000    300.57483   -41513.613   -34027.896     182.9789       696000 
  692000     299.5095   -41256.914    -33797.73    517.67791       697000 
  693000    302.08881   -41287.335   -33763.913    90.790114       698000 
  694000    293.95948   -41294.358   -33973.395    622.89778       699000 
  695000    303.23983   -41343.627    -33791.54    190.33608       700000 
  696000    298.07963   -41331.918   -33908.344    544.61972       701000 
  697000    302.45355   -41126.716   -33594.211    184.86106       702000 
  698000      297.405   -41190.577   -33783.804    374.16358       703000 
  699000    300.22114   -41216.111   -33739.203    538.87314       704000 
  700000    301.84585   -41133.129   -33615.759   -28.003197       705000 
  701000    298.81427    -41224.04    -33782.17    226.95048       706000 
  702000    298.91192   -41188.146   -33743.844    501.52549       707000 
  703000    300.94017   -41126.036   -33631.221    282.45774       708000 
  704000    303.77658   -41090.884   -33525.429    236.88427       709000 
  705000    299.40668   -41029.604   -33572.981    191.26192       710000 
  706000    297.43074   -41153.038   -33745.624    268.31019       711000 
  707000     301.3788   -41231.629    -33725.89    162.80287       712000 
  708000    297.33821   -41273.326   -33868.217    178.59194       713000 
  709000    297.39076   -41119.752   -33713.334    248.23759       714000 
  710000    303.26698   -41099.709   -33546.946     222.0139       715000 
  711000    303.67952   -41108.584   -33545.546    308.21407       716000 
  712000     300.0895   -41254.429     -33780.8    252.87946       717000 
  713000    301.93329   -41114.116   -33594.567    119.87928       718000 
  714000    300.20187   -41129.692   -33653.264    306.60358       719000 
  715000    297.70146   -41265.821   -33851.665     89.51849       720000 
  716000    304.91467   -41331.574   -33737.776   -131.53285       721000 
  717000     298.2848   -41175.411   -33746.727    139.09746       722000 
  718000    300.84494   -41253.892   -33761.449    336.24156       723000 
  719000    301.45222   -41295.306   -33787.738    308.45106       724000 
  720000    296.94413   -41257.904   -33862.609   -57.753479       725000 
  721000    302.02522   -41144.789   -33622.951      25.2262       726000 
  722000    296.41766   -41047.998   -33665.814    491.66218       727000 
  723000    299.24311   -41172.751   -33720.201    397.53956       728000 
  724000    299.05693   -41168.187   -33720.274    464.84544       729000 
  725000    297.99601   -41177.988   -33756.496     529.9815       730000 
  726000    297.02974   -41162.859   -33765.432    265.10112       731000 
  727000    295.16049   -41158.267   -33807.393    561.66638       732000 
  728000     298.0609   -41310.651   -33887.544    77.161515       733000 
  729000     303.3623   -41193.994   -33638.856    378.73548       734000 
  730000    299.27844   -41240.008   -33786.577    5.9881344       735000 
  731000    299.98724   -41151.244   -33680.161    472.33511       736000 
  732000    303.05889   -41215.515   -33667.934    149.34966       737000 
  733000    299.84265   -41126.165   -33658.684    212.78903       738000 
  734000    303.20495   -41319.407   -33768.189    332.77064       739000 
  735000    303.76899   -40999.034   -33433.768   -55.628576       740000 
  736000     298.8648   -41068.779    -33625.65    86.918475       741000 
  737000    294.75527    -41258.24   -33917.458    324.51839       742000 
  738000    297.23099   -41269.022   -33866.583    356.09911       743000 
  739000    299.45121   -41249.624   -33791.891    375.81907       744000 
  740000    296.62496   -41110.413   -33723.067     323.6602       745000 
  741000     304.3631   -41367.448   -33787.386    114.90578       746000 
  742000    297.13877   -41218.691   -33818.549    199.71314       747000 
  743000    297.70618   -41110.825   -33696.552    33.531265       748000 
  744000     300.4797   -41293.734   -33810.387    273.00072       749000 
  745000    301.82882   -41132.284   -33615.338    248.90474       750000 
  746000    299.66238    -41474.99   -34011.998    260.58413       751000 
  747000    301.71055   -41133.076   -33619.074    445.26614       752000 
  748000    298.06306   -41128.559   -33705.398    275.06014       753000 
  749000    299.07558   -41173.437   -33725.059     438.6874       754000 
  750000    302.47387   -41250.469   -33717.458    124.48995       755000 
  751000    300.33939    -41138.25   -33658.397    318.29278       756000 
  752000    297.43231   -41324.656   -33917.203    261.82792       757000 
  753000    301.69109   -41024.704   -33511.187    389.03512       758000 
  754000    301.36385   -41105.465   -33600.099    160.11102       759000 
  755000    297.40494   -41184.504   -33777.733    118.01847       760000 
  756000     298.3174   -41242.671   -33813.176    490.54039       761000 
  757000    297.10333   -41127.814   -33728.555    531.67917       762000 
  758000    299.65501   -41214.425   -33751.616   -52.362756       763000 
  759000    297.02767   -41099.309   -33701.934    435.88317       764000 
  760000    302.74234   -41223.998   -33684.301    323.40121       765000 
  761000    298.03015   -41220.808   -33798.466    113.12809       766000 
  762000    298.94236    -41249.71    -33804.65    363.53314       767000 
  763000    302.27435   -41265.018   -33736.975    455.44351       768000 
  764000    302.57633   -41048.629   -33513.066    394.35659       769000 
  765000    297.95097   -41184.535   -33764.165    419.51104       770000 
  766000    298.69679   -41402.069   -33963.125   -48.785108       771000 
  767000    300.75271   -41296.787    -33806.64    291.31969       772000 
  768000    294.71439   -41108.935    -33769.17    313.77589       773000 
  769000    300.19408   -41176.961   -33700.728    54.283471       774000 
  770000    299.99713   -41325.985   -33854.656    62.006624       775000 
  771000    302.78109   -41173.539   -33632.877    277.20485       776000 
  772000    303.45196   -41334.171   -33776.801    144.19518       777000 
  773000    299.48493   -41108.891   -33650.318    334.32287       778000 
  774000    299.45181   -41221.718    -33763.97    316.38009       779000 
  775000    297.09541   -41369.123   -33970.061   -77.382197       780000 
  776000    299.38834   -41051.099   -33594.931    351.66591       781000 
  777000    299.55878   -41355.138   -33894.726    484.39745       782000 
  778000     302.1496   -41225.312   -33700.377    395.88585       783000 
  779000    303.27071   -41233.832   -33680.976    700.45904       784000 
  780000    296.14539    -41092.19   -33716.788    427.14264       785000 
  781000    304.13557   -41136.184   -33561.789    -21.70147       786000 
  782000    302.17271   -41271.687   -33746.176    427.47522       787000 
  783000    298.91882   -41366.214    -33921.74    432.13102       788000 
  784000    295.32958   -41283.688   -33928.603    168.83227       789000 
  785000    298.01085   -41211.042   -33789.181    376.64484       790000 
  786000    295.90719   -41229.722   -33860.252    141.29536       791000 
  787000    299.38841   -41176.342   -33720.173    380.33187       792000 
  788000     300.0713   -41136.803   -33663.627    229.64891       793000 
  789000    297.99414   -41316.034   -33894.589    292.64607       794000 
  790000    298.47646   -41192.007    -33758.55    336.38107       795000 
  791000    299.11123   -41152.647   -33703.381    163.32907       796000 
  792000    298.87346   -41256.916   -33813.571    272.77944       797000 
  793000    300.82883   -41180.378   -33688.336    436.55647       798000 
  794000    296.59573   -41153.597   -33766.979    90.376992       799000 
  795000    296.26926   -41054.691   -33676.204    331.67988       800000 
  796000    301.25592   -41337.303   -33834.625     232.7962       801000 
  797000    297.92289   -41119.543   -33699.872    300.72863       802000 
  798000    293.76763   -41140.687   -33824.501    300.33654       803000 
  799000    294.79345   -41039.752   -33698.019    263.55448       804000 
  800000    300.50174   -41276.979   -33793.083    395.12923       805000 
  801000    296.59402   -41025.618   -33639.042    258.93338       806000 
  802000     299.4318   -41056.824   -33599.574    326.85135       807000 
  803000    299.47091   -41303.188   -33844.964    303.17882       808000 
  804000    297.14535   -41449.132   -34048.826     305.2796       809000 
  805000    300.24484   -41222.794   -33745.296    306.40911       810000 
  806000    298.64065   -41291.246     -33853.7    317.94409       811000 
  807000    295.15015   -41317.779   -33967.163    177.83366       812000 
  808000    302.56298   -41307.624   -33772.393    116.91281       813000 
  809000    304.34071    -41008.06   -33428.556    53.178548       814000 
  810000    303.36635   -41244.982   -33689.744    96.707204       815000 
  811000    297.60291   -41198.506   -33786.804    381.12935       816000 
  812000    300.80664   -41102.576   -33611.087    293.97102       817000 
  813000    301.28601   -41349.094   -33845.666    642.04754       818000 
  814000    295.83561   -41214.882   -33847.195    424.27357       819000 
  815000    296.28991   -41291.127   -33912.126     305.1348       820000 
  816000    297.25767   -41156.534    -33753.43    262.63641       821000 
  817000    301.84649    -41170.59   -33653.203    442.67407       822000 
  818000    294.99016   -41224.768   -33878.136    127.23878       823000 
  819000    299.05661   -41211.822   -33763.916    282.59286       824000 
  820000    299.24841    -41191.56   -33738.877   -9.3006252       825000 
  821000    298.68144   -41380.811   -33942.249    350.76687       826000 
  822000     303.8064    -41140.32   -33574.123   -60.241144       827000 
  823000    303.16364   -41019.463   -33469.273    275.43437       828000 
  824000    297.12198   -41215.417   -33815.693    178.08037       829000 
  825000    299.60872   -41142.449   -33680.793    53.348223       830000 
  826000    295.76197   -41155.091   -33789.238    700.62369       831000 
  827000     302.3426   -41141.307   -33611.565     112.5775       832000 
  828000    300.86066   -41164.684   -33671.849    358.62962       833000 
  829000    301.51781    -41064.68   -33555.479    321.50175       834000 
  830000    293.27114   -41198.349   -33894.529     97.20734       835000 
  831000    297.54432   -41166.276   -33756.034    210.92895       836000 
  832000    301.37013   -41215.608   -33710.085    497.45318       837000 
  833000     300.9332   -41000.875   -33506.234    320.70069       838000 
  834000    298.26667   -41233.829   -33805.596    151.74977       839000 
  835000    301.36602   -41117.394   -33611.974    330.64314       840000 
  836000    297.57975   -41166.704   -33755.579    9.2512561       841000 
  837000    299.56378   -41010.613   -33550.077    199.80649       842000 
  838000     297.7341   -40976.801   -33561.832    70.417341       843000 
  839000     297.5959   -41141.625   -33730.098    105.71098       844000 
  840000    297.33623    -41291.97    -33886.91    34.052996       845000 
  841000    300.34964   -41028.501   -33548.392    384.61683       846000 
  842000    299.17088   -41269.147   -33818.396    202.14604       847000 
  843000    300.25758   -41117.536   -33639.721     234.0888       848000 
  844000    300.20394   -41105.309   -33628.829    334.70672       849000 
  845000    300.24205   -41084.776   -33607.348    22.491188       850000 
  846000    300.79956   -41017.569   -33526.256     236.9671       851000 
  847000    292.10885    -41032.33   -33757.456    287.08535       852000 
  848000    299.73138   -41117.483   -33652.773    348.20927       853000 
  849000    296.49877   -41364.007   -33979.804   -39.765759       854000 
  850000    296.41594   -41229.352   -33847.212    436.92677       855000 
  851000    295.18776   -41241.165   -33889.612    197.34961       856000 
  852000     294.3298    -41304.02   -33973.834    397.25432       857000 
  853000    297.99139   -41230.969   -33809.593    15.181531       858000 
  854000    298.28288   -41265.082   -33836.446    352.60747       859000 
  855000    301.36907    -41254.37   -33748.873    9.0968422       860000 
  856000    297.42615   -41321.526   -33914.226    431.34235       861000 
  857000    299.76891   -41039.651   -33574.006    221.20709       862000 
  858000    304.01729   -41329.919   -33758.469    398.33101       863000 
  859000     303.3854   -41291.957   -33736.244    270.03082       864000 
  860000    297.46653    -41215.98   -33807.675    186.28454       865000 
  861000    301.72806   -41110.955   -33596.518    382.91014       866000 
  862000     298.9938    -41258.55   -33812.209    569.38739       867000 
  863000     297.9204    -41173.27   -33753.662    116.83575       868000 
  864000    303.67644   -41012.013   -33449.052    570.86622       869000 
  865000    300.68544   -41277.986   -33789.515    184.26693       870000 
  866000    299.02152   -41303.401   -33856.369    236.75215       871000 
  867000    299.70865    -41268.17   -33804.025    361.13233       872000 
  868000    299.13758   -41252.927   -33803.005    223.93534       873000 
  869000    303.05626   -41190.875   -33643.359    569.56651       874000 
  870000    296.61383   -41222.851   -33835.782    192.39362       875000 
  871000    296.56115   -41083.964   -33698.208    463.52786       876000 
  872000     297.3122   -41217.321    -33812.86    596.32666       877000 
  873000    297.41901   -41200.557   -33793.436    364.56631       878000 
  874000    302.72039   -41242.702   -33703.551    441.96814       879000 
  875000    302.11235   -41294.849   -33770.841    95.110232       880000 
  876000    299.50047   -41371.035   -33912.076    319.24857       881000 
  877000    299.36342   -41373.919   -33918.373    140.88644       882000 
  878000    299.28776   -40976.091   -33522.428     441.4461       883000 
  879000    298.68399   -41139.659   -33701.034    99.785652       884000 
  880000    298.97135   -41253.131   -33807.348    251.03757       885000 
  881000    298.04434   -41178.649   -33755.953    431.78341       886000 
  882000    300.39854    -41152.65   -33671.324    255.07002       887000 
  883000    301.82395   -41092.411   -33575.585    136.42082       888000 
  884000    298.42472    -41270.33   -33838.162    204.73874       889000 
  885000    300.02108   -41120.051   -33648.125    192.06017       890000 
  886000    295.95324   -41196.667    -33826.05    94.119105       891000 
  887000    307.76696   -41173.997   -33509.163    312.08906       892000 
  888000     297.4676   -41213.884   -33805.553    289.09774       893000 
  889000    301.09013   -41298.423   -33799.873    10.289873       894000 
  890000    297.55274   -41206.392    -33795.94    202.66412       895000 
  891000     303.1453   -41100.015   -33550.282    563.65915       896000 
  892000     297.8948   -41136.611    -33717.64    96.889186       897000 
  893000    299.35748   -41104.735   -33649.336    73.978268       898000 
  894000    303.07646     -41210.2   -33662.181     197.2358       899000 
  895000    300.61952   -41175.008   -33688.179   -33.558048       900000 
  896000    297.50916   -41137.042   -33727.675    332.18331       901000 
  897000    300.37871   -41099.709   -33618.877    447.54771       902000 
  898000     298.6534   -41153.614    -33715.75     625.3012       903000 
  899000     300.9191   -41192.552   -33698.262    317.50251       904000 
  900000    296.23713   -41145.111   -33767.424    189.09948       905000 
  901000    301.56566   -41107.531   -33597.139    382.75597       906000 
  902000     298.1258   -41152.538   -33727.814   -121.18752       907000 
  903000    298.52601   -41167.217   -33732.526   -140.89272       908000 
  904000    298.23474   -41200.617    -33773.18    99.228103       909000 
  905000    301.02382   -41228.255   -33731.356    507.26736       910000 
  906000    303.79338   -41177.896   -33612.023     49.53465       911000 
  907000    300.18418    -41110.26   -33634.273    60.710656       912000 
  908000    299.52302   -41129.508   -33669.987    144.86507       913000 
  909000    304.71532   -41228.964   -33640.131    19.970661       914000 
  910000     298.9071    -41187.26   -33743.078    81.116056       915000 
  911000    300.27355   -41160.095   -33681.882    346.54662       916000 
  912000     301.8932   -41053.225   -33534.676    15.350036       917000 
  913000    302.22607    -41164.15    -33637.31    96.179724       918000 
  914000    298.52039   -41142.162   -33707.611    145.84739       919000 
  915000    294.81791   -41263.606   -33921.264     252.4578       920000 
  916000    295.72077   -41223.443   -33858.615    247.07357       921000 
  917000    297.69061    -41206.38   -33792.495    319.24682       922000 
  918000    303.13015   -41385.433   -33836.077    341.64705       923000 
  919000    297.90997   -41251.735   -33832.387     486.5956       924000 
  920000    300.25835   -41201.032   -33723.197    528.82402       925000 
  921000    298.22726    -41131.06   -33703.809     304.8333       926000 
  922000    297.47908   -41155.595   -33746.978    259.37264       927000 
  923000    297.68203   -41141.251   -33727.579    357.91731       928000 
  924000    303.34397    -41114.55    -33559.87    715.59543       929000 
  925000    299.00128   -41129.545   -33683.017    2.8357609       930000 
  926000    295.89189   -41179.024   -33809.934    425.26525       931000 
  927000    297.02464    -41033.81    -33636.51    318.15563       932000 
  928000    298.95011   -41096.039   -33650.786    411.07611       933000 
  929000    298.74352   -41191.317   -33751.209     222.4463       934000 
  930000    299.87998   -41169.722   -33701.311    318.83774       935000 
  931000    301.38552    -41070.11   -33564.204    206.65364       936000 
  932000    296.36514   -41138.673   -33757.798    264.95632       937000 
  933000     304.1565   -41217.702   -33642.786    176.94534       938000 
  934000     298.7301   -41055.246   -33615.472    559.21955       939000 
  935000     302.3445   -41152.124   -33622.335    70.999061       940000 
  936000    300.16841   -41072.389   -33596.795    232.64849       941000 
  937000    301.80874   -41049.843   -33533.396     290.6854       942000 
  938000    301.99433   -40999.483   -33478.414    643.96925       943000 
  939000    304.13747   -41022.177   -33447.734    241.30666       944000 
  940000    300.60815   -40987.438   -33500.892    223.12606       945000 
  941000    299.42758   -41075.925    -33618.78    56.360645       946000 
  942000    293.09499    -40991.95   -33692.516    118.86804       947000 
  943000    296.72999   -41100.518   -33710.556    33.797138       948000 
  944000    301.03514   -41277.268   -33780.088    390.67927       949000 
  945000    301.02451   -41218.228   -33721.313    263.71782       950000 
  946000    300.16464    -41209.25   -33733.749    409.69054       951000 
  947000    300.96391   -41103.815   -33608.408    341.27884       952000 
  948000    298.71089   -41203.811   -33764.516    13.778021       953000 
  949000    305.20426   -41032.088   -33431.077    258.26027       954000 
  950000    301.82441   -41213.124   -33696.288    339.73325       955000 
  951000    302.69451   -41108.825   -33570.319    340.61248       956000 
  952000    297.46791   -41036.652   -33628.313    168.36501       957000 
  953000     302.0858   -41166.992   -33643.646    362.82014       958000 
  954000     297.5147   -41166.165    -33756.66    438.91036       959000 
  955000    296.23408   -41116.265   -33738.653   -22.338123       960000 
  956000    298.24503    -40994.05   -33566.357    175.44772       961000 
  957000    299.44877   -41216.738   -33759.066    514.55519       962000 
  958000    299.78291   -41129.074    -33663.08    357.40152       963000 
  959000    298.93297   -41139.313   -33694.487    472.74411       964000 
  960000    302.93878   -41106.111   -33561.522    199.37434       965000 
  961000    297.58997   -41191.134   -33779.755    58.161998       966000 
  962000    301.34067   -41059.457   -33554.668     356.8427       967000 
  963000    303.16748   -41015.931   -33465.645    81.150676       968000 
  964000    306.09951   -41137.186    -33513.88    448.92837       969000 
  965000    297.70112   -41279.659   -33865.512    276.85383       970000 
  966000    295.71304   -41327.991   -33963.356    468.54595       971000 
  967000    300.90673   -41357.937   -33863.954    65.274431       972000 
  968000    296.46148    -41314.15   -33930.875    205.82139       973000 
  969000    297.77659   -41070.743   -33654.716    354.31839       974000 
  970000    299.80876   -41215.128    -33748.49    667.08653       975000 
  971000     302.2134   -41071.403   -33544.878   -126.12825       976000 
  972000    295.87441   -41128.324    -33759.67    279.20257       977000 
  973000    301.86358   -41322.512     -33804.7    251.41676       978000 
  974000    299.96993   -41166.679   -33696.027    433.40437       979000 
  975000    297.46757   -41181.781    -33773.45    367.65438       980000 
  976000    299.25325   -41223.654   -33770.852      268.387       981000 
  977000    300.59752   -41182.466   -33696.185    218.13154       982000 
  978000    298.44949   -41159.394   -33726.609    565.95138       983000 
  979000    299.24588   -41265.496   -33812.877    294.71037       984000 
  980000    301.12735   -41053.191   -33553.714    141.60164       985000 
  981000    301.21348   -40997.695   -33496.073    395.25673       986000 
  982000    299.16883   -41130.145   -33679.445    80.476276       987000 
  983000     297.0221   -41165.819   -33768.582    150.26096       988000 
  984000    297.72602   -40913.859   -33499.091    396.01698       989000 
  985000    302.00632   -41129.819   -33608.452    9.0655714       990000 
  986000    297.35938   -41156.869   -33751.232    419.32103       991000 
  987000    301.06564   -40973.385   -33475.445    394.75835       992000 
  988000    297.71074   -41179.875   -33765.488     438.4573       993000 
  989000    300.06371   -40987.604   -33514.617   -148.77461       994000 
  990000    297.52629   -41051.834    -33642.04    214.65946       995000 
  991000    296.56191   -40943.175   -33557.399    86.967047       996000 
  992000    302.40344   -41195.355   -33664.098    357.96765       997000 
  993000    300.33517   -41217.616   -33737.869     63.49481       998000 
  994000    299.85479   -41272.445   -33804.661    466.17967       999000 
  995000    297.23517   -41263.115   -33860.572    261.50943      1000000 
  996000    299.37796   -41272.846   -33816.937    192.18004      1001000 
  997000     296.1094   -41194.143   -33819.636    310.23934      1002000 
  998000    300.40526   -41052.465   -33570.972     350.4002      1003000 
  999000    298.06808   -41244.327    -33821.04    283.21936      1004000 
 1000000    300.89006   -41176.065   -33682.498    648.60269      1005000 
Loop time of 9224.95 on 28 procs for 1000000 steps with 16712 atoms

Performance: 9.366 ns/day, 2.562 hours/ns, 108.402 timesteps/s
100.0% CPU use with 28 MPI tasks x no OpenMP threads

MPI task timing breakdown:
Section |  min time  |  avg time  |  max time  |%varavg| %total
---------------------------------------------------------------
Pair    | 6237.5     | 6363.1     | 6515.5     |  98.0 | 68.98
Bond    | 36.422     | 37.032     | 37.358     |   3.6 |  0.40
Kspace  | 890.65     | 1062.5     | 1228.3     | 290.3 | 11.52
Neigh   | 503.06     | 511.75     | 516        |  14.4 |  5.55
Comm    | 293.63     | 323.29     | 356.54     | 142.0 |  3.50
Output  | 2.4493     | 2.4643     | 2.5451     |   1.0 |  0.03
Modify  | 867.29     | 874.29     | 880.99     |  10.8 |  9.48
Other   |            | 50.5       |            |       |  0.55

Nlocal:    596.857 ave 627 max 564 min
Histogram: 1 1 3 2 7 5 4 1 1 3
Nghost:    10916.2 ave 11009 max 10818 min
Histogram: 3 0 3 5 3 4 1 5 2 2
Neighs:    366848 ave 387821 max 348050 min
Histogram: 2 3 2 4 4 6 1 3 1 2

Total # of neighbors = 10271758
Ave neighs/atom = 614.634
Ave special neighs/atom = 3
Neighbor list builds = 51983
Dangerous builds = 0
write_data relax.data
PPPM initialization ...
  using 12-bit tables for long-range coulomb (../kspace.cpp:332)
  G vector (1/distance) = 0.241446
  grid = 24 24 24
  stencil order = 5
  estimated absolute RMS force accuracy = 0.0362875
  estimated relative force accuracy = 0.000109279
  using double precision KISS FFT
  3d grid and FFT values/proc = 2890 576


Total wall time: 2:41:07
