LAMMPS (24 Mar 2022)
include "system.in.init"
units real
atom_style full
bond_style harmonic
angle_style harmonic
dihedral_style opls
improper_style harmonic
pair_style lj/cut/coul/long 11.0 11.0
pair_modify mix geometric
special_bonds lj/coul 0.0 0.0 0.5
kspace_style pppm 0.0001
read_data "system.data"
Reading data file ...
  orthogonal box = (0 0 0) to (100 100 100)
  1 by 2 by 3 MPI processor grid
  reading atoms ...
  102 atoms
  scanning bonds ...
  3 = max bonds/atom
  scanning angles ...
  6 = max angles/atom
  scanning dihedrals ...
  11 = max dihedrals/atom
  scanning impropers ...
  2 = max impropers/atom
  reading bonds ...
  115 bonds
  reading angles ...
  209 angles
  reading dihedrals ...
  335 dihedrals
  reading impropers ...
  42 impropers
Finding 1-2 1-3 1-4 neighbors ...
  special bond factors lj:    0        0        0.5     
  special bond factors coul:  0        0        0.5     
     4 = max # of 1-2 neighbors
     7 = max # of 1-3 neighbors
    20 = max # of 1-4 neighbors
    20 = max # of special neighbors
  special bonds CPU = 0.000 seconds
  read_data CPU = 0.008 seconds
include "system.in.settings"
pair_coeff 1 1 0.0 0.0
pair_coeff 2 2 0.1554 3.16557
pair_coeff 3 3 0.066 3.5
pair_coeff 4 4 0.066 3.5
pair_coeff 5 5 0.066 3.5
pair_coeff 6 6 0.066 3.5
pair_coeff 7 7 0.066 3.5
pair_coeff 8 8 0.03 2.5
pair_coeff 9 9 0.076 3.55
pair_coeff 10 10 0.076 3.55
pair_coeff 11 11 0.076 3.55
pair_coeff 12 12 0.03 2.42
pair_coeff 13 13 0.07 3.55
pair_coeff 14 14 0.07 3.55
pair_coeff 15 15 0.03 2.42
pair_coeff 16 16 0.105 3.75
pair_coeff 17 17 0.21 2.96
pair_coeff 18 18 0.17 3.25
pair_coeff 19 19 0.17 3.25
pair_coeff 20 20 0.17 3.25
pair_coeff 21 21 0.0 0.0
pair_coeff 22 22 0.0 0.0
pair_coeff 23 23 0.105 3.75
pair_coeff 24 24 0.21 2.96
pair_coeff 25 25 0.17 3.0
pair_coeff 26 26 0.0 0.0
pair_coeff 27 27 0.105 3.75
pair_coeff 28 28 0.21 2.96
pair_coeff 29 29 0.066 3.5
pair_coeff 30 30 0.066 3.5
pair_coeff 31 31 0.066 3.5
pair_coeff 32 32 0.066 3.5
pair_coeff 33 33 0.076 3.55
pair_coeff 34 34 0.17 3.25
pair_coeff 35 35 0.066 3.5
pair_coeff 36 36 0.066 3.5
pair_coeff 37 37 0.066 3.5
pair_coeff 38 38 0.066 3.5
pair_coeff 39 39 0.03 2.5
pair_coeff 40 40 0.07 3.55
pair_coeff 41 41 0.17 3.07
pair_coeff 42 42 0.0 0.0
pair_coeff 43 43 0.105 3.75
pair_coeff 44 44 0.21 2.96
pair_coeff 45 45 0.14 2.9
pair_coeff 46 46 0.066 3.5
pair_coeff 47 47 0.066 3.5
pair_coeff 48 48 0.066 3.5
pair_coeff 49 49 0.066 3.5
pair_coeff 50 50 0.03 2.5
pair_coeff 51 51 0.07 3.55
pair_coeff 52 52 0.17 3.12
pair_coeff 53 53 0.0 0.0
pair_coeff 54 54 0.03 2.5
pair_coeff 55 55 0.066 3.5
pair_coeff 56 56 0.066 3.5
pair_coeff 57 57 0.066 3.5
pair_coeff 58 58 0.17 3.25
pair_coeff 59 59 0.07 3.55
pair_coeff 60 60 0.07 3.55
pair_coeff 61 61 0.25 3.55
pair_coeff 62 62 0.07 3.55
pair_coeff 63 63 0.17 3.3
pair_coeff 64 64 0.066 3.5
pair_coeff 65 65 0.0 0.0
pair_coeff 66 66 0.066 3.5
pair_coeff 67 67 0.015 2.5
pair_coeff 68 68 0.0005 4.07
pair_coeff 69 69 0.71 4.02
bond_coeff 1 350.0 1.51
bond_coeff 2 570.0 1.229
bond_coeff 3 450.0 1.364
bond_coeff 4 317.0 1.522
bond_coeff 5 214.0 1.327
bond_coeff 6 300.0 1.79
bond_coeff 7 490.0 1.335
bond_coeff 8 317.0 1.522
bond_coeff 9 340.0 1.09
bond_coeff 10 410.0 1.444
bond_coeff 11 400.0 1.49
bond_coeff 12 656.0 1.25
bond_coeff 13 457.0 1.358
bond_coeff 14 553.0 0.945
bond_coeff 15 320.0 1.41
bond_coeff 16 250.0 1.47
bond_coeff 17 400.0 1.38
bond_coeff 18 320.0 1.45
bond_coeff 19 450.0 1.37
bond_coeff 20 450.0 1.364
bond_coeff 21 553.0 0.945
bond_coeff 22 268.0 1.529
bond_coeff 23 222.0 1.81
bond_coeff 24 320.0 1.41
bond_coeff 25 245.0 1.781
bond_coeff 26 337.0 1.449
bond_coeff 27 382.0 1.448
bond_coeff 28 340.0 1.09
bond_coeff 29 317.0 1.51
bond_coeff 30 317.0 1.51
bond_coeff 31 367.0 1.471
bond_coeff 32 337.0 1.449
bond_coeff 33 166.0 2.038
bond_coeff 34 250.0 1.73
bond_coeff 35 250.0 1.76
bond_coeff 36 250.0 1.76
bond_coeff 37 250.0 1.47
bond_coeff 38 200.0 1.69
bond_coeff 39 320.0 1.45
bond_coeff 40 320.0 1.45
bond_coeff 41 450.0 1.37
bond_coeff 42 450.0 1.364
bond_coeff 43 300.0 1.725
bond_coeff 44 300.0 1.725
bond_coeff 45 434.0 1.01
bond_coeff 46 427.0 1.381
bond_coeff 47 600.0 1.0
bond_coeff 48 350.0 1.445
bond_coeff 49 434.0 1.01
bond_coeff 50 481.0 1.34
bond_coeff 51 434.0 1.01
bond_coeff 52 434.0 1.01
bond_coeff 53 340.0 1.08
bond_coeff 54 549.0 1.34
bond_coeff 55 427.0 1.433
bond_coeff 56 469.0 1.4
bond_coeff 57 367.0 1.08
bond_coeff 58 400.0 1.45
bond_coeff 59 483.0 1.339
bond_coeff 60 500.0 1.32
angle_coeff 1 80.0 121.4
angle_coeff 2 80.0 126.0
angle_coeff 3 80.0 121.0
angle_coeff 4 70.0 108.0
angle_coeff 5 70.0 116.0
angle_coeff 6 80.0 117.2
angle_coeff 7 80.0 120.4
angle_coeff 8 81.0 111.4
angle_coeff 9 83.0 123.4
angle_coeff 10 75.0 109.0
angle_coeff 11 75.0 119.0
angle_coeff 12 70.0 114.2
angle_coeff 13 70.0 116.6
angle_coeff 14 70.0 116.6
angle_coeff 15 80.0 122.9
angle_coeff 16 81.0 111.4
angle_coeff 17 70.0 116.0
angle_coeff 18 80.0 120.4
angle_coeff 19 35.0 115.0
angle_coeff 20 35.0 115.0
angle_coeff 21 35.0 123.0
angle_coeff 22 40.0 114.0
angle_coeff 23 40.0 115.0
angle_coeff 24 40.0 115.0
angle_coeff 25 70.0 115.5
angle_coeff 26 80.0 125.3
angle_coeff 27 35.0 115.0
angle_coeff 28 70.0 115.5
angle_coeff 29 70.0 116.0
angle_coeff 30 70.0 120.0
angle_coeff 31 80.0 120.4
angle_coeff 32 81.0 111.4
angle_coeff 33 85.0 120.0
angle_coeff 34 70.0 117.0
angle_coeff 35 70.0 117.0
angle_coeff 36 80.0 126.0
angle_coeff 37 80.0 126.0
angle_coeff 38 35.0 122.0
angle_coeff 39 80.0 122.5
angle_coeff 40 35.0 113.0
angle_coeff 41 55.0 108.5
angle_coeff 42 49.0 105.4
angle_coeff 43 35.0 109.0
angle_coeff 44 35.0 113.0
angle_coeff 45 63.0 111.1
angle_coeff 46 50.0 109.5
angle_coeff 47 58.35 112.7
angle_coeff 48 63.0 111.1
angle_coeff 49 50.0 114.7
angle_coeff 50 50.0 109.5
angle_coeff 51 50.0 109.5
angle_coeff 52 69.0 109.8
angle_coeff 53 69.0 109.8
angle_coeff 54 78.0 111.7
angle_coeff 55 50.0 109.5
angle_coeff 56 63.0 110.1
angle_coeff 57 80.0 109.7
angle_coeff 58 50.0 114.7
angle_coeff 59 56.2 109.47
angle_coeff 60 80.0 111.2
angle_coeff 61 33.0 107.8
angle_coeff 62 35.0 109.5
angle_coeff 63 35.0 109.5
angle_coeff 64 35.0 109.5
angle_coeff 65 35.0 109.5
angle_coeff 66 35.0 109.5
angle_coeff 67 35.0 109.5
angle_coeff 68 37.5 110.7
angle_coeff 69 51.0 107.6
angle_coeff 70 35.0 109.5
angle_coeff 71 63.0 111.1
angle_coeff 72 63.0 112.4
angle_coeff 73 35.0 109.5
angle_coeff 74 40.0 109.5
angle_coeff 75 40.0 109.5
angle_coeff 76 50.0 109.5
angle_coeff 77 50.0 109.5
angle_coeff 78 50.0 114.7
angle_coeff 79 63.0 112.0
angle_coeff 80 63.0 114.0
angle_coeff 81 80.0 111.2
angle_coeff 82 35.0 109.5
angle_coeff 83 80.0 111.2
angle_coeff 84 80.0 111.2
angle_coeff 85 35.0 109.5
angle_coeff 86 63.0 110.1
angle_coeff 87 65.0 109.0
angle_coeff 88 62.0 98.9
angle_coeff 89 68.0 103.7
angle_coeff 90 62.0 104.2
angle_coeff 91 62.0 104.2
angle_coeff 92 60.0 109.5
angle_coeff 93 83.0 116.9
angle_coeff 94 75.0 111.0
angle_coeff 95 75.0 111.0
angle_coeff 96 75.0 111.0
angle_coeff 97 75.0 111.0
angle_coeff 98 83.0 116.9
angle_coeff 99 70.0 126.4
angle_coeff 100 46.0 115.7
angle_coeff 101 50.0 118.0
angle_coeff 102 50.0 121.9
angle_coeff 103 70.0 112.0
angle_coeff 104 70.0 108.6
angle_coeff 105 35.0 110.2
angle_coeff 106 35.0 119.8
angle_coeff 107 35.0 120.0
angle_coeff 108 38.0 118.4
angle_coeff 109 35.0 119.8
angle_coeff 110 50.0 118.0
angle_coeff 111 50.0 121.9
angle_coeff 112 70.0 118.0
angle_coeff 113 75.0 109.47
angle_coeff 114 51.8 107.2
angle_coeff 115 63.0 111.1
angle_coeff 116 35.0 109.5
angle_coeff 117 43.6 106.4
angle_coeff 118 35.0 116.0
angle_coeff 119 50.0 116.0
angle_coeff 120 50.0 116.0
angle_coeff 121 63.0 112.0
angle_coeff 122 70.0 119.7
angle_coeff 123 70.0 130.0
angle_coeff 124 35.0 114.5
angle_coeff 125 35.0 117.0
angle_coeff 126 35.0 117.0
angle_coeff 127 35.0 119.7
angle_coeff 128 60.0 114.0
angle_coeff 129 35.0 120.0
angle_coeff 130 70.0 123.0
angle_coeff 131 70.0 123.0
angle_coeff 132 70.0 124.0
angle_coeff 133 75.0 121.5
angle_coeff 134 85.0 119.4
angle_coeff 135 85.0 120.7
angle_coeff 136 35.0 123.3
angle_coeff 137 85.0 117.0
angle_coeff 138 85.0 119.7
angle_coeff 139 70.0 119.7
angle_coeff 140 63.0 120.0
angle_coeff 141 70.0 120.0
angle_coeff 142 70.0 120.0
angle_coeff 143 70.0 120.0
angle_coeff 144 70.0 120.0
angle_coeff 145 70.0 120.0
angle_coeff 146 70.0 124.0
angle_coeff 147 75.0 120.0
angle_coeff 148 85.0 119.4
angle_coeff 149 85.0 120.0
angle_coeff 150 35.0 119.1
angle_coeff 151 35.0 120.0
angle_coeff 152 35.0 120.0
angle_coeff 153 70.0 120.0
angle_coeff 154 35.0 116.0
angle_coeff 155 70.0 116.0
angle_coeff 156 70.0 116.0
angle_coeff 157 70.0 120.0
angle_coeff 158 70.0 121.5
angle_coeff 159 70.0 124.0
angle_coeff 160 75.0 120.0
angle_coeff 161 50.0 113.0
angle_coeff 162 43.6 109.5
angle_coeff 163 55.0 114.0
angle_coeff 164 70.0 120.5
angle_coeff 165 35.0 113.0
angle_coeff 166 50.0 118.0
angle_coeff 167 70.0 117.0
angle_coeff 168 70.0 120.5
angle_coeff 169 70.0 117.0
angle_coeff 170 70.0 117.0
dihedral_coeff 1 1.6 3.2 0.0 0.0
dihedral_coeff 2 0.0 0.5 0.0 0.0
dihedral_coeff 3 0.0 0.0 0.0 0.0
dihedral_coeff 4 0.0 0.0 0.0 0.0
dihedral_coeff 5 0.7 -1.5 0.0 0.0
dihedral_coeff 6 -0.5 0.2 0.0 0.0
dihedral_coeff 7 0.8 -0.76 0.0 0.0
dihedral_coeff 8 -0.9 0.3 0.0 0.0
dihedral_coeff 9 0.0 0.0 0.3 0.0
dihedral_coeff 10 3.0 5.5 0.0 0.0
dihedral_coeff 11 0.0 5.0 0.0 0.0
dihedral_coeff 12 1.5 5.5 0.0 0.0
dihedral_coeff 13 -2.0 5.0 0.0 0.0
dihedral_coeff 14 1.5 5.5 0.0 0.0
dihedral_coeff 15 4.0 5.0 0.0 0.0
dihedral_coeff 16 0.0 0.0 0.085 0.0
dihedral_coeff 17 0.0 0.0 0.0 0.0
dihedral_coeff 18 0.0 0.0 0.0 0.0
dihedral_coeff 19 -0.65 0.0 0.0 0.0
dihedral_coeff 20 0.0 0.82 0.0 0.0
dihedral_coeff 21 0.0 0.0 0.0 0.0
dihedral_coeff 22 0.0 0.0 0.0 0.0
dihedral_coeff 23 0.0 0.546 0.0 0.0
dihedral_coeff 24 0.0 1.412 0.0 0.0
dihedral_coeff 25 5.26 0.82 0.0 0.0
dihedral_coeff 26 0.0 0.0 0.0 0.0
dihedral_coeff 27 1.454 -0.144 -0.775 0.0
dihedral_coeff 28 0.0 0.0 0.275 0.0
dihedral_coeff 29 0.0 0.0 -0.553 0.0
dihedral_coeff 30 0.0 0.0 0.132 0.0
dihedral_coeff 31 0.0 0.0 0.0 0.0
dihedral_coeff 32 0.0 0.0 0.36 0.0
dihedral_coeff 33 1.173 0.189 -1.2 0.0
dihedral_coeff 34 0.65 0.0 0.0 0.0
dihedral_coeff 35 1.816 1.222 1.581 0.0
dihedral_coeff 36 0.0 0.0 0.0 0.0
dihedral_coeff 37 0.0 0.0 0.0 0.0
dihedral_coeff 38 0.0 0.0 0.36 0.0
dihedral_coeff 39 0.0 0.0 0.275 0.0
dihedral_coeff 40 0.0 0.82 0.0 0.0
dihedral_coeff 41 0.0 0.82 0.0 0.0
dihedral_coeff 42 0.0 0.0 0.0 0.0
dihedral_coeff 43 0.0 5.124 0.0 0.0
dihedral_coeff 44 0.0 5.0 0.0 0.0
dihedral_coeff 45 4.669 5.124 0.0 0.0
dihedral_coeff 46 1.5 5.0 0.0 0.0
dihedral_coeff 47 -2.0 5.0 0.0 0.0
dihedral_coeff 48 4.669 5.124 0.0 0.0
dihedral_coeff 49 4.0 5.0 0.0 0.0
dihedral_coeff 50 0.4 4.9 0.0 0.0
dihedral_coeff 51 0.0 4.9 0.0 0.0
dihedral_coeff 52 0.0 6.603 0.0 0.0
dihedral_coeff 53 0.0 6.089 0.0 0.0
dihedral_coeff 54 0.0 4.9 0.0 0.0
dihedral_coeff 55 0.0 6.089 0.0 0.0
dihedral_coeff 56 0.0 6.089 0.0 0.0
dihedral_coeff 57 2.3 6.089 0.0 0.0
dihedral_coeff 58 0.0 4.9 0.0 0.0
dihedral_coeff 59 4.542 6.603 1.045 0.0
dihedral_coeff 60 2.3 6.089 0.0 0.0
dihedral_coeff 61 0.0 4.9 0.0 0.0
dihedral_coeff 62 2.3 6.089 0.0 0.0
dihedral_coeff 63 2.3 6.089 0.0 0.0
dihedral_coeff 64 0.0 4.9 0.0 0.0
dihedral_coeff 65 2.3 6.089 0.0 0.0
dihedral_coeff 66 4.6 0.0 0.0 0.0
dihedral_coeff 67 0.0 4.9 0.0 0.0
dihedral_coeff 68 2.3 6.089 0.0 0.0
dihedral_coeff 69 0.0 4.9 0.0 0.0
dihedral_coeff 70 0.0 4.9 0.0 0.0
dihedral_coeff 71 0.0 4.9 0.0 0.0
dihedral_coeff 72 2.3 6.089 0.0 0.0
dihedral_coeff 73 0.9 0.23 -0.505 0.0
dihedral_coeff 74 0.0 0.0 0.0 0.0
dihedral_coeff 75 2.5 6.0 0.0 0.0
dihedral_coeff 76 3.2 -3.0 0.0 0.0
dihedral_coeff 77 0.0 0.0 0.0 0.0
dihedral_coeff 78 2.0 0.0 0.0 0.0
dihedral_coeff 79 0.0 2.1 0.0 0.0
dihedral_coeff 80 0.0 2.1 0.0 0.0
dihedral_coeff 81 0.0 0.2 0.0 0.0
dihedral_coeff 82 0.0 2.1 0.0 0.0
dihedral_coeff 83 0.0 1.1 0.0 0.0
dihedral_coeff 84 0.0 0.2 0.0 0.0
dihedral_coeff 85 0.0 14.0 0.0 0.0
dihedral_coeff 86 0.0 14.0 0.0 0.0
dihedral_coeff 87 0.0 14.0 0.0 0.0
dihedral_coeff 88 0.0 14.0 0.0 0.0
dihedral_coeff 89 -0.356 -0.174 0.492 0.0
dihedral_coeff 90 0.0 0.0 0.352 0.0
dihedral_coeff 91 -0.9 0.0 0.0 0.0
dihedral_coeff 92 -0.9 0.0 0.0 0.0
dihedral_coeff 93 0.0 0.0 0.3 0.0
dihedral_coeff 94 0.0 0.0 0.3 0.0
dihedral_coeff 95 5.519 -6.7 0.581 0.0
dihedral_coeff 96 2.722 -5.154 0.0 0.0
dihedral_coeff 97 0.0 1.682 0.0 0.0
dihedral_coeff 98 0.0 1.682 0.0 0.0
dihedral_coeff 99 3.0 3.0 0.0 0.0
dihedral_coeff 100 -4.344 -1.714 0.0 0.0
dihedral_coeff 101 1.711 -0.5 0.663 0.0
dihedral_coeff 102 1.428 0.086 0.029 0.0
dihedral_coeff 103 -0.55 0.0 1.0 0.0
dihedral_coeff 104 -6.18 0.0 0.0 0.0
dihedral_coeff 105 -2.06 -0.313 0.315 0.0
dihedral_coeff 106 -4.344 -1.714 0.0 0.0
dihedral_coeff 107 -9.0 2.0 0.8 0.0
dihedral_coeff 108 0.0 0.0 -0.1 0.0
dihedral_coeff 109 -1.697 -0.456 0.585 0.0
dihedral_coeff 110 9.508 0.0 0.0 0.0
dihedral_coeff 111 -1.552 0.0 0.0 0.0
dihedral_coeff 112 4.319 0.0 0.0 0.0
dihedral_coeff 113 8.0 0.0 0.0 0.0
dihedral_coeff 114 6.28 -1.467 2.03 0.0
dihedral_coeff 115 0.0 0.0 0.468 0.0
dihedral_coeff 116 1.3 -0.05 0.2 0.0
dihedral_coeff 117 2.619 -0.62 0.258 0.0
dihedral_coeff 118 0.0 0.0 0.4 0.0
dihedral_coeff 119 2.392 -0.674 0.55 0.0
dihedral_coeff 120 0.845 -0.962 0.713 0.0
dihedral_coeff 121 0.0 0.0 0.3 0.0
dihedral_coeff 122 2.732 -0.229 0.485 0.0
dihedral_coeff 123 0.0 0.0 0.452 0.0
dihedral_coeff 124 -0.55 0.0 0.0 0.0
dihedral_coeff 125 0.0 0.0 0.468 0.0
dihedral_coeff 126 -0.25 0.0 0.0 0.0
dihedral_coeff 127 2.0 0.0 0.0 0.0
dihedral_coeff 128 0.0 0.0 0.4 0.0
dihedral_coeff 129 11.035 -0.968 0.27 0.0
dihedral_coeff 130 -1.013 -0.709 0.473 0.0
dihedral_coeff 131 -0.8 0.0 0.0 0.0
dihedral_coeff 132 0.0 0.0 0.464 0.0
dihedral_coeff 133 0.845 -0.962 0.713 0.0
dihedral_coeff 134 0.0 0.0 0.3 0.0
dihedral_coeff 135 0.0 0.0 0.366 0.0
dihedral_coeff 136 0.0 0.0 0.462 0.0
dihedral_coeff 137 0.0 0.0 0.384 0.0
dihedral_coeff 138 1.0 0.0 0.0 0.0
dihedral_coeff 139 0.925 -0.576 0.677 0.0
dihedral_coeff 140 1.941 -0.836 0.935 0.0
dihedral_coeff 141 0.0 0.0 0.647 0.0
dihedral_coeff 142 0.0 0.0 0.558 0.0
dihedral_coeff 143 0.0 0.0 0.647 0.0
dihedral_coeff 144 -0.521 -2.018 1.996 0.0
dihedral_coeff 145 -0.5 -1.5 1.0 0.0
dihedral_coeff 146 -1.22 -0.126 0.422 0.0
dihedral_coeff 147 0.65 -0.25 0.67 0.0
dihedral_coeff 148 0.0 0.0 0.76 0.0
dihedral_coeff 149 0.0 0.0 0.198 0.0
dihedral_coeff 150 0.0 0.0 0.76 0.0
dihedral_coeff 151 0.0 0.0 0.76 0.0
dihedral_coeff 152 0.0 0.0 0.0 0.0
dihedral_coeff 153 -2.365 0.912 -0.85 0.0
dihedral_coeff 154 -1.737 1.251 -3.501 0.0
dihedral_coeff 155 0.0 0.0 0.0 0.0
dihedral_coeff 156 0.0 0.462 0.0 0.0
dihedral_coeff 157 4.753 -0.734 0.0 0.0
dihedral_coeff 158 0.0 0.0 0.0 0.0
dihedral_coeff 159 0.0 0.0 0.0 0.0
dihedral_coeff 160 0.0 0.0 0.0 0.0
dihedral_coeff 161 0.0 0.0 0.0 0.0
dihedral_coeff 162 0.0 0.0 0.0 0.0
dihedral_coeff 163 0.416 -0.128 0.695 0.0
dihedral_coeff 164 -0.19 -0.417 0.418 0.0
dihedral_coeff 165 0.0 0.0 0.56 0.0
dihedral_coeff 166 0.0 0.0 0.4 0.0
dihedral_coeff 167 0.0 0.0 0.56 0.0
dihedral_coeff 168 1.711 -0.5 0.663 0.0
dihedral_coeff 169 0.0 0.0 0.468 0.0
dihedral_coeff 170 0.5 0.0 0.0 0.0
dihedral_coeff 171 2.817 -0.169 0.543 0.0
dihedral_coeff 172 0.346 0.405 -0.904 0.0
dihedral_coeff 173 0.0 0.0 0.3 0.0
dihedral_coeff 174 0.0 0.0 0.318 0.0
dihedral_coeff 175 0.0 0.0 -0.372 0.0
dihedral_coeff 176 0.0 -8.0 0.0 0.0
dihedral_coeff 177 0.0 -8.0 0.0 0.0
dihedral_coeff 178 0.0 0.0 0.0 0.0
dihedral_coeff 179 0.0 0.0 0.0 0.0
dihedral_coeff 180 -0.5 0.5 -0.5 0.0
dihedral_coeff 181 0.0 -0.4 0.0 0.0
dihedral_coeff 182 0.0 0.0 0.0 0.0
dihedral_coeff 183 1.438 -0.124 0.264 0.0
dihedral_coeff 184 0.0 0.0 0.347 0.0
dihedral_coeff 185 0.0 0.0 0.302 0.0
dihedral_coeff 186 0.0 0.0 0.261 0.0
dihedral_coeff 187 0.0 0.0 0.462 0.0
dihedral_coeff 188 0.0 -7.414 1.705 0.0
dihedral_coeff 189 0.0 0.6 0.0 0.0
dihedral_coeff 190 1.6 5.1 0.0 0.0
dihedral_coeff 191 0.0 0.0 0.3 0.0
dihedral_coeff 192 0.0 0.0 0.3 0.0
dihedral_coeff 193 0.65 -0.25 0.67 0.0
dihedral_coeff 194 0.0 0.0 0.76 0.0
dihedral_coeff 195 -3.5 3.0 0.0 0.0
dihedral_coeff 196 0.0 2.5 0.0 0.0
dihedral_coeff 197 0.0 3.0 0.0 0.0
dihedral_coeff 198 0.4 5.5 0.0 0.0
dihedral_coeff 199 3.0 3.0 0.0 0.0
dihedral_coeff 200 0.0 2.1 0.0 0.0
dihedral_coeff 201 0.0 2.1 0.0 0.0
dihedral_coeff 202 0.0 2.1 0.0 0.0
dihedral_coeff 203 0.0 2.1 0.0 0.0
dihedral_coeff 204 0.0 0.0 0.3 0.0
dihedral_coeff 205 0.0 0.0 0.3 0.0
dihedral_coeff 206 0.0 0.0 0.3 0.0
dihedral_coeff 207 -7.582 3.431 3.198 0.0
dihedral_coeff 208 0.0 2.03 0.0 0.0
dihedral_coeff 209 0.0 -8.0 0.0 0.0
dihedral_coeff 210 0.0 -8.0 0.0 0.0
dihedral_coeff 211 0.0 14.0 0.0 0.0
dihedral_coeff 212 0.0 14.0 0.0 0.0
dihedral_coeff 213 0.0 14.0 0.0 0.0
dihedral_coeff 214 0.0 14.0 0.0 0.0
dihedral_coeff 215 0.0 14.0 0.0 0.0
dihedral_coeff 216 0.0 14.0 0.0 0.0
dihedral_coeff 217 0.0 14.0 0.0 0.0
dihedral_coeff 218 0.0 14.0 0.0 0.0
dihedral_coeff 219 0.0 14.0 0.0 0.0
dihedral_coeff 220 -1.6 14.0 0.0 0.0
dihedral_coeff 221 0.0 14.0 0.0 0.0
dihedral_coeff 222 0.0 14.0 0.0 0.0
dihedral_coeff 223 0.0 14.0 0.0 0.0
dihedral_coeff 224 0.205 -0.531 0.0 0.0
dihedral_coeff 225 0.0 0.0 -0.372 0.0
dihedral_coeff 226 0.0 0.0 -0.372 0.0
dihedral_coeff 227 1.241 3.353 -0.286 0.0
dihedral_coeff 228 0.0 7.25 0.0 0.0
dihedral_coeff 229 0.0 7.25 0.0 0.0
dihedral_coeff 230 0.0 7.25 0.0 0.0
dihedral_coeff 231 0.0 7.25 0.0 0.0
dihedral_coeff 232 0.0 7.25 0.0 0.0
dihedral_coeff 233 0.0 7.25 0.0 0.0
dihedral_coeff 234 0.0 7.25 0.0 0.0
dihedral_coeff 235 0.0 7.25 0.0 0.0
dihedral_coeff 236 0.0 7.25 0.0 0.0
dihedral_coeff 237 0.0 7.25 0.0 0.0
dihedral_coeff 238 0.0 7.25 0.0 0.0
dihedral_coeff 239 0.0 7.25 0.0 0.0
dihedral_coeff 240 0.0 7.25 0.0 0.0
dihedral_coeff 241 0.0 7.25 0.0 0.0
dihedral_coeff 242 0.0 0.0 0.0 0.0
dihedral_coeff 243 0.0 7.25 0.0 0.0
dihedral_coeff 244 0.0 7.25 0.0 0.0
dihedral_coeff 245 0.0 7.25 0.0 0.0
dihedral_coeff 246 0.0 7.25 0.0 0.0
dihedral_coeff 247 0.0 7.25 0.0 0.0
dihedral_coeff 248 0.0 7.25 0.0 0.0
dihedral_coeff 249 1.816 1.222 1.581 0.0
dihedral_coeff 250 0.0 0.82 0.0 0.0
dihedral_coeff 251 1.0 0.0 0.0 0.0
dihedral_coeff 252 6.28 -1.467 2.03 0.0
dihedral_coeff 253 1.428 0.086 0.029 0.0
dihedral_coeff 254 1.438 -0.124 0.264 0.0
dihedral_coeff 255 1.3 -0.05 0.2 0.0
dihedral_coeff 256 1.3 -0.05 0.2 0.0
improper_coeff 1 10.5 0.000000
improper_coeff 2 10.5 0.000000
improper_coeff 3 1.0 0.000000
improper_coeff 4 15.0 0.000000
improper_coeff 5 1.1 0.000000

thermo_style custom step temp pe etotal press time
thermo 100

variable T equal 300
velocity all create $T 182398412
velocity all create 300 182398412


timestep 0.05
fix  fxnvt all nvt temp $T $T 10.0
fix  fxnvt all nvt temp 300 $T 10.0
fix  fxnvt all nvt temp 300 300 10.0
run  3000
PPPM initialization ...
  using 12-bit tables for long-range coulomb (../kspace.cpp:340)
  G vector (1/distance) = 0.092609207
  grid = 8 8 8
  stencil order = 5
  estimated absolute RMS force accuracy = 0.03309473
  estimated relative force accuracy = 9.9663797e-05
  using double precision KISS FFT
  3d grid and FFT values/proc = 936 128
  generated 2346 of 2346 mixed pair_coeff terms from geometric mixing rule
Neighbor list info ...
  update every 1 steps, delay 10 steps, check yes
  max neighbors/atom: 2000, page size: 100000
  master list distance cutoff = 13
  ghost atom cutoff = 13
  binsize = 6.5, bins = 16 16 16
  1 neighbor lists, perpetual/occasional/extra = 1 0 0
  (1) pair lj/cut/coul/long, perpetual
      attributes: half, newton on
      pair build: half/bin/newton
      stencil: half/bin/3d
      bin: standard
Per MPI rank memory allocation (min/avg/max) = 13.43 | 13.64 | 14.23 Mbytes
   Step          Temp          PotEng         TotEng         Press           Time     
         0   300            161.52165      251.84019      30.381898      0            
       100   251.80148      176.71064      252.51845      31.167832      5            
       200   246.18421      186.04056      260.15723      14.383572      10           
       300   281.55172      186.09391      270.85838      5.6227913      15           
       400   254.79094      198.56901      275.27684      1.6883061      20           
       500   263.06535      201.36312      280.56205     -13.909463      25           
       600   287.30875      200.49612      286.99381     -2.0913369      30           
       700   324.59136      194.86451      292.58658     -12.609245      35           
       800   313.64388      199.52463      293.95082      8.9106675      40           
       900   312.08654      199.53678      293.49412     -3.8856766      45           
      1000   326.27571      193.64567      291.87483      1.6998275      50           
      1100   303.17334      194.62974      285.90365     -10.702728      55           
      1200   278.26955      193.8951       277.67144     -9.2151366      60           
      1300   291.22201      183.84766      271.52349     -6.4703403      65           
      1400   241.84359      196.12661      268.93648     -10.267039      70           
      1500   306.36018      179.58507      271.81842      1.558866       75           
      1600   268.71511      194.85424      275.75409     -9.7502062      80           
      1700   333.20057      183.1806       283.49457      8.3431213      85           
      1800   304.25878      196.68441      288.28511     -8.5704685      90           
      1900   325.92742      191.29121      289.41551      4.9886146      95           
      2000   292.0412       200.2511       288.17356     -9.404387       100          
      2100   317.7089       192.22229      287.87231     -4.9264934      105          
      2200   299.7501       195.56397      285.80728     -9.7113568      110          
      2300   281.19428      199.2428       283.89966     -9.792928       115          
      2400   298.46976      192.65806      282.51591     -7.0616337      120          
      2500   285.34008      195.03666      280.94166     -18.683798      125          
      2600   299.74032      189.06239      279.30276     -6.6548631      130          
      2700   281.173        192.57781      277.22826     -7.6256086      135          
      2800   292.48693      187.13116      275.18781      13.336079      140          
      2900   278.55374      190.3252       274.1871       1.8016436      145          
      3000   309.91855      184.33214      277.63678      9.0058741      150          
Loop time of 0.379161 on 6 procs for 3000 steps with 102 atoms

Performance: 34.181 ns/day, 0.702 hours/ns, 7912.202 timesteps/s
99.6% CPU use with 6 MPI tasks x no OpenMP threads

MPI task timing breakdown:
Section |  min time  |  avg time  |  max time  |%varavg| %total
---------------------------------------------------------------
Pair    | 0.00010507 | 0.016495   | 0.081908   |  23.0 |  4.35
Bond    | 0.00014729 | 0.019218   | 0.085148   |  21.8 |  5.07
Kspace  | 0.18313    | 0.29995    | 0.33652    |   9.8 | 79.11
Neigh   | 7.7292e-05 | 7.9556e-05 | 8.1875e-05 |   0.0 |  0.02
Comm    | 0.00029469 | 0.022815   | 0.041758   |  11.4 |  6.02
Output  | 0.00024659 | 0.00030808 | 0.00053333 |   0.0 |  0.08
Modify  | 0.0044159  | 0.016503   | 0.038827   |  12.1 |  4.35
Other   |            | 0.003797   |            |       |  1.00

Nlocal:             17 ave          61 max           0 min
Histogram: 3 0 1 1 0 0 0 0 0 1
Nghost:        116.333 ave         194 max           0 min
Histogram: 2 0 0 0 0 0 0 1 0 3
Neighs:        717.833 ave        3625 max           0 min
Histogram: 4 1 0 0 0 0 0 0 0 1

Total # of neighbors = 4307
Ave neighs/atom = 42.22549
Ave special neighs/atom = 12.019608
Neighbor list builds = 1
Dangerous builds = 0
unfix fxnvt
write_data relaxed.data
System init for write_data ...
PPPM initialization ...
  using 12-bit tables for long-range coulomb (../kspace.cpp:340)
  G vector (1/distance) = 0.092609207
  grid = 8 8 8
  stencil order = 5
  estimated absolute RMS force accuracy = 0.03309473
  estimated relative force accuracy = 9.9663797e-05
  using double precision KISS FFT
  3d grid and FFT values/proc = 936 128
  generated 2346 of 2346 mixed pair_coeff terms from geometric mixing rule

reset_timestep 0
timestep 1
fix  fxnvt all nvt temp $T $T 100.0
fix  fxnvt all nvt temp 300 $T 100.0
fix  fxnvt all nvt temp 300 300 100.0

# dump every 1 ps
dump d1 all custom 10000 system.lammpstrj id mol type x y z vx vy vz ix iy iz


variable    epoch loop 50
label       loop
print       "EPOCH = ${epoch}"
EPOCH = 1
run         100000  # 100 ps each time
PPPM initialization ...
  using 12-bit tables for long-range coulomb (../kspace.cpp:340)
  G vector (1/distance) = 0.092609207
  grid = 8 8 8
  stencil order = 5
  estimated absolute RMS force accuracy = 0.03309473
  estimated relative force accuracy = 9.9663797e-05
  using double precision KISS FFT
  3d grid and FFT values/proc = 936 128
  generated 2346 of 2346 mixed pair_coeff terms from geometric mixing rule
Per MPI rank memory allocation (min/avg/max) = 13.69 | 14.56 | 15.48 Mbytes
   Step          Temp          PotEng         TotEng         Press           Time     
         0   309.91855      184.33214      277.63678      9.0058741      0            
       100   338.47819      178.10767      280.01053      2.960899       100          
       200   288.93029      192.29307      279.27895      7.4309571      200          
       300   302.60213      171.60748      262.70942      2.3544972      300          
       400   283.66843      171.90928      257.31101     -5.2883589      400          
       500   281.84865      180.94306      265.79692      0.45210432     500          
       600   322.10797      183.69331      280.66772     -6.41615        600          
       700   319.96479      184.12494      280.45412      4.0061847      700          
       800   252.32187      199.62372      275.5882      -2.7871198      800          
       900   285.82442      186.58072      272.63154     -23.314871      900          
      1000   304.01507      176.37302      267.90034      13.666136      1000         
      1100   310.03379      180.34458      273.68391     -10.510305      1100         
      1200   335.76261      192.51059      293.59589      10.780277      1200         
      1300   318.24636      196.3463       292.15813     -9.3645694      1300         
      1400   299.96396      185.0316       275.3393      -5.7935766      1400         
      1500   303.02501      179.48921      270.71847      11.207011      1500         
      1600   294.66442      182.63933      271.35154     -9.282225       1600         
      1700   326.15677      179.00777      277.20112     -1.3991716      1700         
      1800   334.04634      185.57587      286.14447      1.2749039      1800         
      1900   376.62345      194.96577      308.35271     -0.65409996     1900         
      2000   367.4675       184.65721      295.28764      12.680241      2000         
      2100   281.37907      192.59459      277.30709     -5.8804503      2100         
      2200   297.12384      176.57209      266.02473      3.1581312      2200         
      2300   279.63521      178.09707      262.28456      9.3191152      2300         
      2400   281.20337      186.59749      271.25709     -6.5127441      2400         
      2500   295.82211      198.27208      287.33282     -10.755519      2500         
      2600   313.08124      192.18822      286.44502      4.7948153      2600         
      2700   316.36992      181.24239      276.48929      5.5257606      2700         
      2800   306.57963      180.4605       272.75992     -12.613511      2800         
      2900   265.30503      193.33636      273.20957      5.8875909      2900         
      3000   284.34348      191.96467      277.56963      2.6168613      3000         
      3100   317.5126       186.42682      282.01774      10.008774      3100         
      3200   302.70902      185.93766      277.07179      8.3769795      3200         
      3300   261.17448      175.35313      253.98279     -0.74791014     3300         
      3400   266.62814      173.27236      253.54392     -4.6016718      3400         
      3500   304.12544      174.10883      265.66939      2.5432094      3500         
      3600   308.02676      180.09066      272.82576     -0.57223812     3600         
      3700   271.89978      193.43712      275.29576     -17.85038       3700         
      3800   302.22186      182.9177       273.90516      7.1850488      3800         
      3900   300.52185      180.32691      270.80256      7.9002681      3900         
      4000   282.21764      181.95372      266.91867     -3.6847527      4000         
      4100   272.7519       180.11025      262.22543      8.6274298      4100         
      4200   324.77801      158.062        255.84026      4.7389219      4200         
      4300   275.61621      177.42558      260.40309      8.405975       4300         
      4400   330.2259       178.81722      278.23563     -4.8440762      4400         
      4500   306.09572      193.06808      285.22181     -13.79173       4500         
      4600   308.83134      189.75832      282.73565     -12.588135      4600         
      4700   313.73887      177.82693      272.28173      4.7793508      4700         
      4800   271.34463      174.6982       256.38971      11.410367      4800         
      4900   268.20443      175.45695      256.20306      6.9793225      4900         
      5000   269.04097      182.92366      263.92163      8.8610552      5000         
      5100   304.89031      180.76633      272.55716      21.50875       5100         
      5200   299.56816      188.37924      278.56777     -11.911871      5200         
      5300   320.29249      184.59217      281.02        -4.2609566      5300         
      5400   275.12383      186.35918      269.18846     -18.214284      5400         
      5500   266.90462      178.75275      259.10754     -8.082879       5500         
      5600   314.18727      172.39488      266.98467     -0.090397766    5600         
      5700   322.74629      184.21496      281.38155     -5.5178831      5700         
      5800   319.59901      185.71475      281.93381      10.234439      5800         
      5900   294.3542       185.79943      274.41824      3.9758248      5900         
      6000   272.40911      185.67009      267.68207     -4.080624       6000         
      6100   316.68491      173.30682      268.64856      1.8143488      6100         
      6200   321.04691      178.58429      275.23925     -1.7805911      6200         
      6300   329.20834      190.34424      289.4563      -0.94524951     6300         
      6400   343.9313       186.37688      289.92146     -18.924539      6400         
      6500   272.49879      187.33643      269.37541     -8.1313494      6500         
      6600   320.69733      171.52293      268.07266     -1.9660393      6600         
      6700   351.64635      161.46502      267.33231     -2.8110133      6700         
      6800   314.24745      176.59696      271.20487     -1.7704491      6800         
      6900   256.67231      201.26025      278.53449     -6.7650419      6900         
      7000   318.80677      192.93272      288.91326     -6.1851286      7000         
      7100   319.17731      181.43366      277.52576     -0.3725652      7100         
      7200   284.08691      179.02316      264.55088      9.317801       7200         
      7300   322.05338      168.71734      265.67531     -8.1810723      7300         
      7400   302.97708      182.00008      273.21491      3.5379714      7400         
      7500   318.813        185.24007      281.22249     -9.9731663      7500         
      7600   317.44862      183.55933      279.13099     -1.8612861      7600         
      7700   296.17471      185.77849      274.94539      1.2901921      7700         
      7800   294.14386      182.57112      271.1266       2.8973227      7800         
      7900   287.90138      175.68609      262.3622      -0.93746951     7900         
      8000   258.70783      175.11673      253.00378      1.0478896      8000         
      8100   264.72875      174.33088      254.0306      -2.533391       8100         
      8200   300.28162      182.20367      272.607        14.530397      8200         
      8300   338.5431       179.14678      281.06918     -8.8648594      8300         
      8400   314.77331      183.25942      278.02564      14.049473      8400         
      8500   283.41507      179.22269      264.54815     -4.5374006      8500         
      8600   283.8235       167.60272      253.05113      2.8946723      8600         
      8700   295.85829      166.99919      256.07083     -3.4725112      8700         
      8800   336.15668      180.14121      281.34515      1.5965032      8800         
      8900   330.34761      179.0999       278.55495     -10.558341      8900         
      9000   293.44994      181.16541      269.51198     -5.2149317      9000         
      9100   278.86416      179.25634      263.21169      1.24887        9100         
      9200   290.56503      174.60656      262.0846       14.847749      9200         
      9300   299.03365      192.73913      282.76674      1.4253049      9300         
      9400   347.15783      180.84437      285.36033      12.049127      9400         
      9500   316.1855       181.1279       276.31928     -10.821684      9500         
      9600   283.47044      182.15599      267.49812      1.3920913      9600         
      9700   284.59753      179.83614      265.51759     -9.2958008      9700         
      9800   301.1443       177.0116       267.67465      0.0093060429   9800         
      9900   304.87712      182.93279      274.71965     -7.9758859      9900         
     10000   347.67659      186.4071       291.07925      5.7719316      10000        
     10100   380.75582      189.77075      304.40179      22.972906      10100        
     10200   296.37976      194.08334      283.31197      6.6606627      10200        
     10300   315.39836      177.98459      272.93899      14.119391      10300        
     10400   289.70996      182.29785      269.51846      15.823956      10400        
     10500   286.58145      181.70418      267.98291     -5.2525793      10500        
     10600   287.4337       173.99602      260.53133     -12.922266      10600        
     10700   271.89215      175.57656      257.4329      -8.8899109      10700        
     10800   300.40547      178.81373      269.25435      0.59885793     10800        
     10900   330.13185      184.21572      283.60581     -6.0520864      10900        
     11000   294.04836      193.04993      281.57666     -5.5026472      11000        
     11100   283.26415      187.13677      272.41679      4.8697999      11100        
     11200   249.19535      180.0507       255.0739       4.4074038      11200        
     11300   275.30477      169.74586      252.62962      1.8273735      11300        
     11400   263.09187      183.22851      262.43542     -17.545439      11400        
     11500   268.59897      188.85603      269.72092     -2.4739639      11500        
     11600   329.62488      175.66273      274.9002      -12.05628       11600        
     11700   309.73325      184.29982      277.54868     -5.1605261      11700        
     11800   276.489        182.25751      265.4978       0.34428762     11800        
     11900   299.79089      163.72162      253.97721     -2.8766831      11900        
     12000   252.29489      184.49587      260.45223      15.891006      12000        
     12100   324.83419      178.01223      275.8074       2.9339057      12100        
     12200   313.18654      182.38658      276.67509     -11.363943      12200        
     12300   300.38391      179.84162      270.27574      10.344649      12300        
     12400   288.40116      175.47628      262.30285     -5.3199439      12400        
     12500   253.19348      171.91441      248.14129      7.8942318      12500        
     12600   243.14007      167.94208      241.14227     -6.5448299      12600        
     12700   286.93995      171.98511      258.37177      6.7076381      12700        
     12800   242.86194      195.73772      268.85418      3.3346949      12800        
     12900   306.47921      186.64539      278.91458     -2.5382848      12900        
     13000   323.25604      183.60908      280.92913     -12.087639      13000        
     13100   282.66301      190.95882      276.05786      16.919189      13100        
     13200   272.23304      180.69746      262.65643     -11.009349      13200        
     13300   280.80534      171.37162      255.91138      1.5259289      13300        
     13400   272.21848      189.809        271.76359     -12.560939      13400        
     13500   326.76398      184.14356      282.51971      8.2265429      13500        
     13600   297.26148      186.54968      276.04376      1.7086327      13600        
     13700   297.06173      179.69265      269.12659     -0.18072036     13700        
     13800   287.38209      176.67188      263.19166     -7.891709       13800        
     13900   298.6219       172.42694      262.33059     -6.8767275      13900        
     14000   276.19888      195.77619      278.92913     -17.097828      14000        
     14100   307.38604      195.98294      288.52514      1.7631257      14100        
     14200   318.34002      188.22805      284.06808      5.1794945      14200        
     14300   307.15342      179.57421      272.04637      4.67403        14300        
     14400   245.48003      185.49548      259.40015      14.895841      14400        
     14500   304.17951      171.0563       262.63313     -3.4787011      14500        
     14600   312.49534      174.08829      268.1687       5.0298108      14600        
     14700   317.96279      174.36589      270.09234      8.0279956      14700        
     14800   293.03997      183.82802      272.05117     -11.705526      14800        
     14900   331.24764      192.8298       292.55581      8.7303157      14900        
     15000   338.79384      200.84203      302.83992     -18.664475      15000        
     15100   312.8092       195.19934      289.37425      11.71764       15100        
     15200   277.76658      192.40421      276.02912      15.2846        15200        
     15300   307.26166      178.24946      270.75421      0.25659975     15300        
     15400   286.83233      177.94503      264.2993       5.5948008      15400        
     15500   312.74269      166.1017       260.25659     -7.3225131      15500        
     15600   292.02977      176.79331      264.71233     -17.444425      15600        
     15700   324.01421      181.9604       279.50871      6.8595222      15700        
     15800   311.16134      190.36296      284.04175      2.5798683      15800        
     15900   316.10328      179.61148      274.77811      3.518922       15900        
     16000   267.43739      177.98403      258.49922      9.722967       16000        
     16100   274.53275      175.95252      258.60385     -17.623179      16100        
     16200   351.613        160.6194       266.47664      11.228237      16200        
     16300   284.82371      185.77929      271.52884     -13.622094      16300        
     16400   316.05702      178.99225      274.14495      2.9810598      16400        
     16500   296.5657       178.51438      267.79899     -1.4257382      16500        
     16600   251.84709      170.49813      246.31967     -9.0987513      16600        
     16700   303.52209      160.77989      252.1588      -0.16362404     16700        
     16800   297.49846      175.43097      264.9964      -2.1626906      16800        
     16900   304.469        180.95432      272.61831     -1.5817566      16900        
     17000   336.0116       177.73345      278.89371     -0.37075275     17000        
     17100   285.26316      194.882        280.76385     -0.016367552    17100        
     17200   253.28025      182.96412      259.21713      0.50619466     17200        
     17300   251.37878      180.17532      255.85587     -7.5108972      17300        
     17400   311.42952      171.61302      265.37255     -9.3471446      17400        
     17500   284.08213      188.37556      273.90184     -0.5903066      17500        
     17600   283.86595      189.82106      275.28225     -4.1587777      17600        
     17700   298.30628      179.62509      269.43372     -2.2007701      17700        
     17800   268.71419      181.97546      262.87504     -1.7932467      17800        
     17900   262.12094      166.34011      245.25471      0.15718388     17900        
     18000   266.26486      171.94926      252.11144     -9.00284        18000        
     18100   323.78559      169.57785      267.05732      0.86867528     18100        
     18200   288.83585      187.59476      274.55221      3.855052       18200        
     18300   307.86231      188.46903      281.15462      4.3678736      18300        
     18400   304.93414      186.10059      277.90462      1.9842575      18400        
     18500   272.0524       176.50858      258.41317      3.7061821      18500        
     18600   257.88401      179.98305      257.62208      1.8913577      18600        
     18700   269.37738      183.5914       264.69065     -1.6643539      18700        
     18800   263.79261      198.42774      277.84562      9.6628594      18800        
     18900   315.9493       184.12773      279.248       -10.910963      18900        
     19000   314.93616      179.54726      274.36251      10.84409       19000        
     19100   267.3322       190.45303      270.93655     -11.312103      19100        
     19200   266.83472      179.36271      259.69646      7.4808771      19200        
     19300   276.67616      170.35864      253.65527     -1.7938351      19300        
     19400   282.57939      179.32634      264.4002       4.3752048      19400        
     19500   351.39772      172.90938      278.70182      5.916817       19500        
     19600   318.36668      181.66516      277.51321     -7.2161305      19600        
     19700   284.23069      183.84847      269.41948      1.6955412      19700        
     19800   272.26812      180.80992      262.77945      2.3247026      19800        
     19900   278.65885      176.47452      260.36806     -3.046511       19900        
     20000   305.02469      178.92743      270.75872      8.1695839      20000        
     20100   333.97406      183.22298      283.76981     -8.7574637      20100        
     20200   311.32288      184.57742      278.30485      7.2484418      20200        
     20300   267.33237      185.92326      266.40683     -9.2673729      20300        
     20400   271.14076      178.98682      260.61695     -9.8086813      20400        
     20500   322.07203      166.2772       263.24079      4.2648449      20500        
     20600   313.83125      174.47716      268.95976      10.569179      20600        
     20700   278.91029      188.93812      272.90736     -2.5389342      20700        
     20800   300.93523      183.37037      273.97047     -4.898584       20800        
     20900   310.19511      170.68681      264.07472     -0.66920379     20900        
     21000   288.62654      166.22547      253.11989      0.98759332     21000        
     21100   300.434        169.39869      259.8479       3.5094865      21100        
     21200   306.58261      180.65831      272.95863     -8.1072686      21200        
     21300   293.78901      188.98155      277.4302       15.40835       21300        
     21400   298.37194      182.0288       271.8572       9.4726372      21400        
     21500   267.24866      175.19938      255.65775      2.5259086      21500        
     21600   239.94766      174.81227      247.05135     -3.3910853      21600        
     21700   281.38867      181.54313      266.25851     -2.0846712      21700        
     21800   290.35588      191.97656      279.39163      10.889279      21800        
     21900   353.87109      179.3657       285.90278      7.5932343      21900        
     22000   302.05156      185.99764      276.93383     -11.450502      22000        
     22100   303.74331      172.43897      263.88449     -4.5931002      22100        
     22200   289.73524      172.08155      259.30977      1.7957204      22200        
     22300   290.89231      180.50894      268.08551     -7.3414806      22300        
     22400   349.08115      182.007        287.10201      14.057564      22400        
     22500   315.28263      187.67813      282.59769     -1.8983374      22500        
     22600   293.14012      185.83262      274.08592      0.30821918     22600        
     22700   308.2072       176.80831      269.59773     -4.2263954      22700        
     22800   282.83108      180.92334      266.07298      2.6842846      22800        
     22900   333.7396       170.76657      271.24282     -13.529893      22900        
     23000   308.53931      188.86787      281.75728     -14.927674      23000        
     23100   326.1999       186.15606      284.36239     -9.5624676      23100        
     23200   308.23166      175.42157      268.21835     -5.3134673      23200        
     23300   294.24032      170.62774      259.21227      0.35449132     23300        
     23400   298.19874      170.54594      260.32219      0.57836717     23400        
     23500   297.42955      180.37189      269.91657      4.7174533      23500        
     23600   313.05548      179.9409       274.18995     -8.8844921      23600        
     23700   294.14847      186.6242       275.18107      14.650116      23700        
     23800   305.27004      180.54584      272.45099     -4.4578462      23800        
     23900   318.16019      170.20919      265.99508     -2.0506104      23900        
     24000   283.16443      168.40862      253.65861     -1.1842892      24000        
     24100   312.32618      158.3092       252.33869      13.959195      24100        
     24200   314.22507      173.16572      267.76689      7.7822002      24200        
     24300   319.59568      180.93403      277.15209      3.1367914      24300        
     24400   295.64051      186.62457      275.63064     -9.0848387      24400        
     24500   286.7838       183.32165      269.6613      -2.5284619      24500        
     24600   295.92206      167.57981      256.67064     -5.264533       24600        
     24700   249.9829       176.68848      251.94879      2.4307998      24700        
     24800   313.99414      171.63874      266.17038     -1.7245806      24800        
     24900   280.41221      190.17563      274.59704      9.3312667      24900        
     25000   327.21179      175.71861      274.22958      4.1687071      25000        
     25100   290.49714      184.92556      272.38315      8.1874555      25100        
     25200   297.07537      176.25197      265.69002      12.0068        25200        
     25300   237.10823      183.53918      254.92341      10.134004      25300        
     25400   278.43201      171.98948      255.81473      7.3432986      25400        
     25500   290.1649       190.72608      278.08365      0.6405092      25500        
     25600   315.59692      188.69044      283.70462     -9.7837398      25600        
     25700   333.05417      176.18743      276.45732     -8.7817165      25700        
     25800   263.01161      185.11428      264.29703     -6.0343524      25800        
     25900   314.95267      163.357        258.17722      0.065062804    25900        
     26000   280.63172      178.34809      262.83558     -5.845942       26000        
     26100   298.93768      190.28862      280.28734      7.4335936      26100        
     26200   298.27108      195.31264      285.11068     -6.4014839      26200        
     26300   317.72382      177.28106      272.93557      0.44499051     26300        
     26400   293.54577      172.58557      260.961        0.2044831      26400        
     26500   261.62791      186.90159      265.66777      2.9936319      26500        
     26600   295.93841      186.25081      275.34657      4.5695706      26600        
     26700   303.8999       184.513        276.00566     -10.042211      26700        
     26800   296.90333      183.40699      272.79324      8.7507469      26800        
     26900   331.96127      169.14529      269.08615      5.6907083      26900        
     27000   271.69302      179.90912      261.70552     -4.5250441      27000        
     27100   299.96545      162.48484      252.79298      3.9501365      27100        
     27200   280.75491      173.61006      258.13465      6.2099482      27200        
     27300   333.10202      177.48362      277.76792     -12.664055      27300        
     27400   317.08243      186.80005      282.26146     -1.9463975      27400        
     27500   278.39217      192.66063      276.47388      3.1707749      27500        
     27600   273.04611      183.6008       265.80456     -11.105594      27600        
     27700   290.43375      164.07654      251.51505      5.8952929      27700        
     27800   255.72215      173.25963      250.24781      2.0943794      27800        
     27900   300.24577      183.66735      274.05988     -9.284688       27900        
     28000   286.39673      192.78726      279.01038      4.6423078      28000        
     28100   298.45981      182.55765      272.4125       7.563137       28100        
     28200   317.0014       169.23119      264.66821      13.181859      28200        
     28300   275.34479      179.26188      262.15768      0.8037916      28300        
     28400   283.0014       183.48417      268.68508     -10.369446      28400        
     28500   314.26269      192.12413      286.73663      9.3028049      28500        
     28600   324.5648       191.23697      288.95103      6.7288353      28600        
     28700   299.79398      188.99707      279.25359     -1.0921482      28700        
     28800   299.83518      176.1816       266.45052      12.148215      28800        
     28900   297.34616      177.33092      266.8505       2.0597854      28900        
     29000   286.05194      181.24326      267.36258     -0.24942773     29000        
     29100   334.54612      172.94593      273.66499      2.2987953      29100        
     29200   349.22352      181.86728      287.00514      2.6128799      29200        
     29300   346.85226      198.94002      303.36399     -14.311484      29300        
     29400   338.21584      185.80841      287.63229     -15.854142      29400        
     29500   273.07192      193.58429      275.79582     -6.3734078      29500        
     29600   295.88944      185.16599      274.247        2.4367636      29600        
     29700   323.78793      174.67915      272.15933      5.4683166      29700        
     29800   304.22785      182.80966      274.40104      1.9111459      29800        
     29900   313.57053      180.94117      275.34529      8.2445476      29900        
     30000   292.74262      181.87326      270.00689      11.965727      30000        
     30100   286.66361      173.89285      260.19632      6.0071572      30100        
     30200   288.54018      174.90058      261.76901     -1.4186042      30200        
     30300   296.98043      189.13211      278.54158     -4.3897761      30300        
     30400   324.7798       188.32607      286.10487      5.3381876      30400        
     30500   338.29712      177.1391       278.98745     -2.3290359      30500        
     30600   323.17363      172.11935      269.41459     -8.0882758      30600        
     30700   280.64978      183.79723      268.29016      2.7859898      30700        
     30800   270.12588      190.00051      271.3251      -0.44596119     30800        
     30900   283.06584      188.75622      273.97654     -4.1861571      30900        
     31000   328.39138      175.4075       274.2736      -5.5800711      31000        
     31100   294.49991      176.86218      265.52486      6.6269777      31100        
     31200   292.78646      170.45801      258.60483     -7.0042418      31200        
     31300   268.17723      182.04273      262.78065      5.2796579      31300        
     31400   319.40447      182.80637      278.96686     -5.1221197      31400        
     31500   349.3392       176.94944      282.12213      14.127387      31500        
     31600   315.79443      179.02886      274.1025      -6.6247241      31600        
     31700   299.35767      177.53289      267.65805      3.1562715      31700        
     31800   306.85211      161.17137      253.55283      0.35637297     31800        
     31900   244.79662      166.96761      240.66652     -5.9439764      31900        
     32000   252.96547      174.20744      250.36568     -1.1416702      32000        
     32100   293.72932      172.9484       261.37908      3.6169786      32100        
     32200   278.2776       189.02361      272.80237      2.8788106      32200        
     32300   326.42527      184.67737      282.95156      8.9195683      32300        
     32400   319.86166      187.91681      284.21494     -3.834728       32400        
     32500   289.00048      182.18712      269.19413     -0.47707445     32500        
     32600   249.28363      181.10749      256.15727     -5.1054634      32600        
     32700   268.24382      179.86935      260.62733     -5.5406725      32700        
     32800   307.26116      179.03612      271.54072      0.74488042     32800        
     32900   332.53795      176.60765      276.72213     -2.1297753      32900        
     33000   314.51895      180.00597      274.69562      11.991472      33000        
     33100   283.47739      185.54522      270.88943      5.396991       33100        
     33200   291.72687      180.27563      268.10345      1.7910625      33200        
     33300   276.9188       182.12028      265.48995     -5.9478993      33300        
     33400   275.25241      180.57512      263.44311      11.701088      33400        
     33500   306.70817      177.96331      270.30143      9.6136478      33500        
     33600   308.62639      190.24238      283.158        4.1220352      33600        
     33700   310.15339      191.63243      285.00778      1.9758141      33700        
     33800   288.02022      182.06765      268.77954     -1.232249       33800        
     33900   285.42317      173.63653      259.56655     -1.4357458      33900        
     34000   280.16275      179.4043       263.75061     -13.013849      34000        
     34100   298.47687      182.59982      272.45981      3.4700266      34100        
     34200   310.66821      185.42552      278.95586     -6.390989       34200        
     34300   285.3923       190.90394      276.82466      11.600653      34300        
     34400   299.17238      186.46152      276.5309       7.713312       34400        
     34500   284.12041      190.11182      275.64962     -4.8028073      34500        
     34600   301.27826      181.02779      271.73117      5.8274375      34600        
     34700   270.28609      183.44349      264.81631     -20.556546      34700        
     34800   302.89139      162.85502      254.04405     -5.1873567      34800        
     34900   284.75648      170.94434      256.67364     -0.26391117     34900        
     35000   289.36363      187.18679      274.30313     -2.316477       35000        
     35100   303.45208      186.96293      278.32076      14.918153      35100        
     35200   301.35035      185.24082      275.9659       0.84947557     35200        
     35300   266.13936      189.39532      269.51971      1.4471637      35300        
     35400   299.89731      164.83796      255.12558      3.1214231      35400        
     35500   249.19062      174.00814      249.02992      1.4109824      35500        
     35600   331.7945       169.34563      269.23628     -2.2079196      35600        
     35700   296.04589      190.26619      279.3943      -11.240753      35700        
     35800   282.05241      191.3071       276.22231     -4.4701261      35800        
     35900   320.29806      170.20136      266.63088      4.5119685      35900        
     36000   263.55128      175.77966      255.12489     -0.31152697     36000        
     36100   267.91745      180.57607      261.23579      2.6682594      36100        
     36200   309.48036      190.55769      283.73041      0.873404       36200        
     36300   297.15734      194.60723      284.06996      10.831207      36300        
     36400   311.48988      183.10003      276.87774      11.030434      36400        
     36500   267.72933      185.0066       265.60968     -6.7032658      36500        
     36600   274.39692      180.30304      262.91347     -1.658952       36600        
     36700   298.72693      190.33943      280.2747      -0.46256155     36700        
     36800   328.41631      193.7108       292.58441     -6.5545702      36800        
     36900   351.58844      173.9949       279.84476      2.3204632      36900        
     37000   299.4008       178.03971      268.17786     -20.723389      37000        
     37100   251.31874      189.29636      264.95884     -4.858041       37100        
     37200   285.69784      184.27528      270.28799      3.6597142      37200        
     37300   335.48179      191.95551      292.95627     -8.1464604      37300        
     37400   341.02064      189.40428      292.07257      3.7771858      37400        
     37500   327.83608      181.97483      280.67375     -3.7959054      37500        
     37600   312.46364      178.54525      272.61612      6.6959424      37600        
     37700   296.89011      177.83122      267.21349      1.6427554      37700        
     37800   296.8115       174.10691      263.46552     -9.4130362      37800        
     37900   299.05144      176.88599      266.91896      13.134032      37900        
     38000   307.56288      186.75063      279.34607     -12.89416       38000        
     38100   318.8805       190.73241      286.73515      7.3703446      38100        
     38200   294.61032      191.12253      279.81845     -8.2335408      38200        
     38300   263.9746       187.33275      266.80543      6.9939614      38300        
     38400   292.82353      174.08235      262.24034     -4.9137815      38400        
     38500   289.14207      182.20051      269.25014      8.0408159      38500        
     38600   285.66944      186.62077      272.62493     -2.6660685      38600        
     38700   298.94515      184.09229      274.09326      13.861859      38700        
     38800   290.48525      182.57681      270.03083     -6.9430838      38800        
     38900   259.22942      184.96823      263.01231      17.549685      38900        
     39000   288.39786      165.95269      252.77827      8.6259154      39000        
     39100   275.05788      176.43356      259.24299      5.1523145      39100        
     39200   302.31757      184.2          275.21628     -4.315803       39200        
     39300   303.92635      186.75085      278.25147     -24.249959      39300        
     39400   286.751        193.43798      279.76776     -12.148299      39400        
     39500   301.72074      174.23906      265.07566     -3.9399763      39500        
     39600   265.31561      176.34649      256.22289     -3.6821501      39600        
     39700   305.3518       167.33893      259.2687       4.8929615      39700        
     39800   308.37199      173.03193      265.87096      5.8595951      39800        
     39900   293.98954      181.31035      269.81937      1.9956842      39900        
     40000   287.30181      187.73028      274.22589     -2.0517345      40000        
     40100   294.33834      191.12602      279.74006     -6.343889       40100        
     40200   312.81095      197.71775      291.89318     -7.8691505      40200        
     40300   297.25411      203.27312      292.76498      3.0732289      40300        
     40400   284.33573      186.53601      272.13864     -7.8785618      40400        
     40500   296.02046      178.03631      267.15677     -5.4389953      40500        
     40600   305.94355      174.53003      266.63795     -12.240382      40600        
     40700   314.6583       176.76099      271.49259      4.646982       40700        
     40800   338.19576      181.13335      282.95118      0.34705862     40800        
     40900   332.65991      191.08295      291.23415     -7.4528881      40900        
     41000   288.04963      187.92328      274.64403      0.82769025     41000        
     41100   277.96479      180.24407      263.92865      9.5947967      41100        
     41200   295.64356      178.8542       267.86118     -1.265494       41200        
     41300   294.12694      188.3257       276.87609     -8.5157956      41300        
     41400   339.40535      185.57479      287.75678     -9.6623191      41400        
     41500   323.17697      187.79405      285.09029      4.7059253      41500        
     41600   295.32364      175.87806      264.78873     -9.3598621      41600        
     41700   265.97653      177.34459      257.41996     -2.193057       41700        
     41800   287.05123      176.62546      263.04563      6.9468911      41800        
     41900   293.52595      190.04472      278.41418      2.6580597      41900        
     42000   322.4383       187.16853      284.24239     -1.7820734      42000        
     42100   315.1399       183.85061      278.7272      -3.7767021      42100        
     42200   318.45436      176.79737      272.67182      2.3876151      42200        
     42300   314.94947      178.75425      273.57351      5.4468275      42300        
     42400   294.6017       185.98152      274.67484     -5.791761       42400        
     42500   304.64198      180.68096      272.39703      2.8613378      42500        
     42600   290.80327      179.6868       267.23656     -19.986878      42600        
     42700   265.87007      175.07335      255.11667      3.8546715      42700        
     42800   248.07096      178.68741      253.3721      -4.8275374      42800        
     42900   309.1664       175.873        268.95119      2.1028311      42900        
     43000   329.52265      179.27036      278.47705      6.6541706      43000        
     43100   293.63101      189.33104      277.73212      9.5685003      43100        
     43200   325.07744      171.72128      269.58969     -1.9777282      43200        
     43300   286.55143      173.06569      259.33538     -6.7275696      43300        
     43400   256.43788      173.89022      251.09387      7.0329348      43400        
     43500   288.7102       178.45272      265.37234      5.0329651      43500        
     43600   318.38028      184.49491      280.34705     -6.8114756      43600        
     43700   320.28701      182.36395      278.79014      9.5598247      43700        
     43800   294.78374      181.07798      269.82611     -0.59286699     43800        
     43900   267.24618      177.72459      258.18221      7.4819292      43900        
     44000   280.352        175.14072      259.544        5.1242987      44000        
     44100   324.85005      181.08156      278.88151      10.920551      44100        
     44200   327.96847      188.18675      286.92553      5.6753938      44200        
     44300   350.66777      171.70694      277.27961     -4.925493       44300        
     44400   278.59618      179.79097      263.66564      3.942164       44400        
     44500   276.6497       179.70965      262.99831      6.007083       44500        
     44600   316.1971       171.98366      267.17853     -8.3352088      44600        
     44700   303.91574      180.95306      272.45049     -6.5288472      44700        
     44800   301.49293      182.3313       273.09931     -12.145883      44800        
     44900   283.36422      185.13972      270.44987      6.5499504      44900        
     45000   333.05545      171.13211      271.40239     -5.0428315      45000        
     45100   319.35957      176.02672      272.17369      8.5367857      45100        
     45200   298.46911      181.13448      270.99214      2.8073339      45200        
     45300   269.27897      189.60522      270.67484      6.4257904      45300        
     45400   289.47879      185.69051      272.84152     -5.7718319      45400        
     45500   300.02228      181.56356      271.88881      5.1093301      45500        
     45600   318.57459      173.33947      269.25011      7.7835754      45600        
     45700   306.80132      170.03549      262.40165     -2.7079634      45700        
     45800   257.95978      178.33815      255.99998     -0.014793494    45800        
     45900   326.67763      176.64207      274.99223     -9.4453472      45900        
     46000   338.06526      183.1255       284.90404     -1.4649662      46000        
     46100   302.42559      191.09774      282.14653     -4.088593       46100        
     46200   307.04857      177.29536      269.73596     -6.9080887      46200        
     46300   245.81694      186.83123      260.83732     -2.5959092      46300        
     46400   244.27596      190.52006      264.06222      8.6543575      46400        
     46500   293.76456      178.56403      267.00532     -0.4360817      46500        
     46600   321.79321      173.99331      270.87296      7.9270381      46600        
     46700   294.71096      188.69248      277.41869     -1.5463477      46700        
     46800   287.32217      195.77459      282.27633      4.95346        46800        
     46900   316.50263      184.70653      279.99338     -16.720475      46900        
     47000   281.19349      180.183        264.83962     -10.024728      47000        
     47100   277.58499      176.47432      260.04456      5.7238328      47100        
     47200   296.09303      179.98071      269.12302      7.6939885      47200        
     47300   323.14571      186.65274      283.93958     -0.34569631     47300        
     47400   314.88517      190.45722      285.25712      2.698502       47400        
     47500   314.27801      181.89988      276.51699     -1.479127       47500        
     47600   317.89082      175.85484      271.55962      10.086799      47600        
     47700   266.50571      186.97806      267.21276     -0.7428338      47700        
     47800   283.11872      182.37567      267.61191      0.50594166     47800        
     47900   297.70483      198.93174      288.5593       10.22659       47900        
     48000   348.92411      187.85556      292.90329     -3.9689958      48000        
     48100   296.11725      187.97351      277.12311      14.928346      48100        
     48200   297.75012      176.35174      265.99293     -9.674771       48200        
     48300   289.96242      177.88839      265.185       -3.6704649      48300        
     48400   308.68235      176.30425      269.23672      1.2981693      48400        
     48500   295.55311      193.12957      282.10932      4.0342416      48500        
     48600   313.96336      203.68883      298.21121     -7.857041       48600        
     48700   294.56086      197.77999      286.46102      16.43473       48700        
     48800   300.99147      186.05931      276.67635     -0.86365318     48800        
     48900   304.91607      180.26627      272.06486      4.1855078      48900        
     49000   319.1592       171.41793      267.50458     -11.800369      49000        
     49100   324.20598      165.95894      263.56498      9.5105222      49100        
     49200   264.84612      186.79316      266.52822      10.772613      49200        
     49300   311.62218      182.36632      276.18386      3.8334993      49300        
     49400   341.16608      180.37163      283.0837      -4.826371       49400        
     49500   322.44368      175.85639      272.93187     -0.1447027      49500        
     49600   258.9696       180.23959      258.20545      0.01662951     49600        
     49700   263.61302      180.7522       260.11601      9.954168       49700        
     49800   289.94699      181.60684      268.8988      -18.532683      49800        
     49900   274.97092      190.88236      273.6656       6.0532925      49900        
     50000   291.07128      187.32666      274.9571      -13.311046      50000        
     50100   313.39823      178.54156      272.8938       5.2414042      50100        
     50200   306.23189      166.8449       259.03963     -15.370433      50200        
     50300   227.24711      181.84812      250.26354     -12.36157       50300        
     50400   273.40628      178.18053      260.49272     -14.213821      50400        
     50500   333.08283      172.53691      272.81543      6.6078919      50500        
     50600   309.87528      183.98879      277.2804       1.2958092      50600        
     50700   287.00951      189.34997      275.75757      6.4660631      50700        
     50800   254.34902      187.97763      264.5524      -9.5345082      50800        
     50900   241.83334      178.67294      251.47972     -2.1547221      50900        
     51000   281.72715      170.76499      255.58228     -15.554564      51000        
     51100   313.4499       182.63334      277.00113      9.6781098      51100        
     51200   309.07141      184.6935       277.7431      -2.9049626      51200        
     51300   288.77179      186.75359      273.69175     -2.7353699      51300        
     51400   311.08938      168.57272      262.22986     -9.9976636      51400        
     51500   287.60376      165.16965      251.75616      19.016664      51500        
     51600   254.51037      176.14592      252.76927      1.6603768      51600        
     51700   304.84615      183.3112       275.08873      2.3095335      51700        
     51800   333.73459      179.33138      279.80613     -2.0416452      51800        
     51900   332.5785       178.80257      278.92926      10.18601       51900        
     52000   297.44444      178.24651      267.79567      11.382038      52000        
     52100   259.79928      179.59811      257.81375     -7.0323657      52100        
     52200   294.65207      172.80215      261.51063      1.80072        52200        
     52300   324.56613      187.92527      285.63974      1.8402884      52300        
     52400   302.9658       193.43796      284.64939      0.97361953     52400        
     52500   304.94048      181.8909       273.69684      6.4975181      52500        
     52600   302.39416      172.63301      263.67234     -2.9749429      52600        
     52700   276.88718      180.24669      263.60685      2.4471989      52700        
     52800   317.11586      182.91357      278.38504      0.95381301     52800        
     52900   352.09564      188.68031      294.68286     -0.28955539     52900        
     53000   301.75039      194.8182       285.66372     -15.505697      53000        
     53100   301.9987       180.74325      271.66353      3.2457322      53100        
     53200   284.08632      178.71762      264.24516     -11.19717       53200        
     53300   292.26688      177.13958      265.12997     -1.5834252      53300        
     53400   327.32791      180.34983      278.89577     -14.167661      53400        
     53500   317.47261      197.56737      293.14625      5.5608299      53500        
     53600   303.99259      194.55066      286.07122      3.1699467      53600        
     53700   320.52891      178.14231      274.64132      4.5524018      53700        
     53800   281.3361       186.95455      271.65411     -1.8926695      53800        
     53900   272.27763      188.60831      270.58071     -2.9919104      53900        
     54000   304.16336      179.95831      271.53028     -14.537824      54000        
     54100   299.25287      185.34386      275.43747     -4.7579174      54100        
     54200   314.80765      184.80513      279.58169     -1.0271476      54200        
     54300   306.88794      184.88589      277.27813      5.0589083      54300        
     54400   289.56436      179.92651      267.10328      0.44626693     54400        
     54500   269.43486      177.25024      258.36679     -3.1705612      54500        
     54600   314.79337      171.55645      266.32871      9.1371134      54600        
     54700   333.63708      187.03115      287.47653      5.7572661      54700        
     54800   329.58825      186.53322      285.75965     -2.9610678      54800        
     54900   294.84291      184.76817      273.53411      7.1234628      54900        
     55000   281.9783       179.38136      264.27425     -4.2994638      55000        
     55100   307.22996      175.42661      267.92182     -4.2623524      55100        
     55200   266.94727      189.62947      269.9971      -2.4635577      55200        
     55300   309.72597      179.161        272.40767     -1.2242058      55300        
     55400   272.98677      191.28227      273.46816      4.0115992      55400        
     55500   310.83617      179.52014      273.10104      4.0439754      55500        
     55600   311.41727      179.9755       273.73134      5.0179824      55600        
     55700   276.74442      185.77487      269.09205      3.1478754      55700        
     55800   259.96461      178.65965      256.92507     -0.91909819     55800        
     55900   268.59774      176.48919      257.35371     -2.8596368      55900        
     56000   296.93951      183.95133      273.34848     -2.7961594      56000        
     56100   323.49374      182.7278       280.11941      1.8994945      56100        
     56200   272.02776      195.74087      277.63805      3.0421871      56200        
     56300   265.57369      190.88936      270.84346      6.1660323      56300        
     56400   276.98875      177.92272      261.31345     -3.7211327      56400        
     56500   276.88373      161.26173      244.62084      1.208267       56500        
     56600   260.15162      170.42005      248.74177      9.6294282      56600        
     56700   279.47248      181.16469      265.30319     -8.7270971      56700        
     56800   328.12209      173.82983      272.61486     -2.7594316      56800        
     56900   274.47512      195.64311      278.27709     -14.870621      56900        
     57000   299.45312      189.86949      280.02339      7.3790785      57000        
     57100   333.70022      175.50712      275.97152      2.8221256      57100        
     57200   282.1732       176.14515      261.09673      1.317336       57200        
     57300   269.10736      175.98354      257.00149      7.544778       57300        
     57400   296.45774      182.17224      271.42435     -8.0598894      57400        
     57500   288.24532      195.26839      282.04805     -16.532447      57500        
     57600   337.70774      178.67277      280.34368     -5.3307471      57600        
     57700   301.53788      179.25982      270.04136      3.3891224      57700        
     57800   303.43085      171.07125      262.42269      3.0430585      57800        
     57900   262.02286      178.71489      257.59997      2.3915723      57900        
     58000   266.1939       175.38725      255.52807     -0.70764559     58000        
     58100   314.8711       172.00077      266.79644      2.6222501      58100        
     58200   295.1851       190.601        279.46996      18.95138       58200        
     58300   299.41681      191.92532      282.06829     -12.705443      58300        
     58400   297.16602      180.12299      269.58833      13.014305      58400        
     58500   260.11033      178.17208      256.48136     -1.8767632      58500        
     58600   280.54896      176.70881      261.17139      4.007637       58600        
     58700   276.71657      184.91348      268.22227     -13.535282      58700        
     58800   299.61745      182.90987      273.11325     -3.7317824      58800        
     58900   317.03208      179.40422      274.85047     -6.7861459      58900        
     59000   326.37511      176.4941       274.75318     -2.6407732      59000        
     59100   311.27131      175.28239      268.99429      2.757452       59100        
     59200   254.88707      186.25866      262.99543      5.2018959      59200        
     59300   279.63706      181.64439      265.83243      8.5775405      59300        
     59400   278.44935      195.08694      278.9174      -12.574568      59400        
     59500   336.1913       187.37451      288.58888      4.9157983      59500        
     59600   332.43723      182.12722      282.21137     -10.627714      59600        
     59700   250.39534      185.29607      260.68055     -12.872835      59700        
     59800   269.44979      180.29312      261.41416      4.4146039      59800        
     59900   338.58717      168.19695      270.13261      3.6427488      59900        
     60000   307.75089      187.33894      279.99098      13.317442      60000        
     60100   305.84519      191.57748      283.65579      14.498622      60100        
     60200   292.45214      184.95337      272.99954      8.0530854      60200        
     60300   303.86918      169.90901      261.39242     -7.6885887      60300        
     60400   282.60715      176.66118      261.7434      -2.4333697      60400        
     60500   288.30459      186.90143      273.69893     -0.98433714     60500        
     60600   333.58475      183.42376      283.85339     -0.8864169      60600        
     60700   333.45272      181.2151       281.60498     -1.8370455      60700        
     60800   286.93247      187.52718      273.91159      9.5488087      60800        
     60900   278.88919      185.99584      269.95872      4.3785206      60900        
     61000   276.58696      184.33105      267.60083     -9.767206       61000        
     61100   315.18477      171.35461      266.2447      -16.014578      61100        
     61200   304.48146      181.55908      273.22683      2.5088894      61200        
     61300   314.64128      192.86159      287.58807     -15.049364      61300        
     61400   323.81318      188.93105      286.41883      11.943136      61400        
     61500   295.27225      178.99291      267.88811      10.496627      61500        
     61600   284.0162       176.69112      262.19755      7.7728099      61600        
     61700   291.5704       176.87156      264.65227      10.159543      61700        
     61800   277.40385      190.83786      274.35356      3.1603226      61800        
     61900   374.99083      180.81144      293.70686     -14.351413      61900        
     62000   348.48042      193.70062      298.61476     -0.7770968      62000        
     62100   311.95737      183.72423      277.64268     -14.830233      62100        
     62200   281.80653      184.44745      269.28863     -0.11275415     62200        
     62300   300.32297      180.60053      271.01631     -9.3994766      62300        
     62400   266.41138      192.53907      272.74537     -3.0300371      62400        
     62500   325.98068      171.78757      269.92791     -3.4592084      62500        
     62600   324.62912      177.36655      275.09998     -5.3364028      62600        
     62700   277.69512      189.75266      273.35605      5.2754454      62700        
     62800   278.66212      179.83582      263.73034     -3.0077244      62800        
     62900   263.8845       179.13232      258.57787     -7.3674412      62900        
     63000   324.90908      168.5225       266.34021      0.022308362    63000        
     63100   290.13083      198.83432      286.18163     -1.6739625      63100        
     63200   269.41117      203.86994      284.97935      17.39292       63200        
     63300   303.16141      180.40266      271.67298      2.7666915      63300        
     63400   313.26691      167.8625       262.1752       17.609316      63400        
     63500   270.51637      181.44244      262.88459     -6.1140211      63500        
     63600   298.46728      177.88952      267.74662     -0.081645289    63600        
     63700   295.95625      181.77172      270.87285     -13.260722      63700        
     63800   264.89205      193.26272      273.0116       9.37223        63800        
     63900   338.69841      179.22486      281.19402     -9.3774141      63900        
     64000   352.27271      184.807        290.86287      1.6958831      64000        
     64100   278.72402      194.39036      278.30352     -0.84498314     64100        
     64200   267.56999      185.25491      265.81002      8.2155722      64200        
     64300   264.21014      186.87698      266.42056     -1.7053322      64300        
     64400   313.55294      176.28925      270.68807      1.8430109      64400        
     64500   299.33191      189.78784      279.90525     -9.9917911      64500        
     64600   342.72907      183.21394      286.39658      5.7532533      64600        
     64700   323.44766      182.75448      280.13222     -11.965214      64700        
     64800   299.37079      175.1837       265.31281      5.1943614      64800        
     64900   278.1084       178.63934      262.36716     -11.097602      64900        
     65000   313.23382      181.74816      276.0509       6.1950914      65000        
     65100   288.81161      199.85934      286.80949      9.4265629      65100        
     65200   255.68701      206.4015       283.37909      9.1842264      65200        
     65300   314.62223      183.61993      278.34067      1.7957039      65300        
     65400   294.43459      177.11119      265.7542       2.1268416      65400        
     65500   283.42187      173.75738      259.08488     -3.9490375      65500        
     65600   266.91538      183.65388      264.01191     -7.4096652      65600        
     65700   341.5538       183.87295      286.70175      7.9618115      65700        
     65800   312.70617      188.93198      283.07587     -4.1303583      65800        
     65900   273.69375      186.7158       269.11454     -4.9107091      65900        
     66000   274.88548      179.37387      262.13139     -1.8209997      66000        
     66100   276.60126      178.25271      261.52678      8.8227983      66100        
     66200   282.7313       199.88231      285.00191     -7.4755814      66200        
     66300   334.85807      185.58324      286.39622     -2.5018423      66300        
     66400   312.83061      178.33456      272.51591     -4.911393       66400        
     66500   288.35112      179.38465      266.19616      6.2129722      66500        
     66600   275.03499      184.66237      267.46491      8.2118903      66600        
     66700   323.75792      180.74821      278.21936      0.25327879     66700        
     66800   348.6558       190.83236      295.7993       6.5950021      66800        
     66900   292.5522       201.74181      289.81811     -13.936366      66900        
     67000   285.49951      179.69065      265.64365     -4.2774077      67000        
     67100   306.48854      173.66042      265.93242      1.0711697      67100        
     67200   280.81385      189.04427      273.5866       6.7914662      67200        
     67300   301.26787      195.39752      286.09777      5.9372086      67300        
     67400   304.59768      196.02548      287.72821     -7.0989228      67400        
     67500   296.98915      176.48096      265.89306      8.9477367      67500        
     67600   247.1527       186.16763      260.57587     -5.0723433      67600        
     67700   294.10226      176.25998      264.80294      0.41032187     67700        
     67800   286.87378      188.91702      275.28376      1.1251455      67800        
     67900   311.53536      191.0056       284.797        9.0460646      67900        
     68000   356.55531      171.62352      278.96871      7.4703127      68000        
     68100   281.28279      174.47437      259.15788     -0.95852207     68100        
     68200   274.55545      172.70904      255.3672       0.82901701     68200        
     68300   305.63474      172.05174      264.06669     -2.4491287      68300        
     68400   324.18824      179.52584      277.12654      1.4476709      68400        
     68500   293.04324      193.00069      281.22482      2.8306305      68500        
     68600   305.34502      177.04781      268.97554      3.7202793      68600        
     68700   272.73879      175.28697      257.39821      3.7027268      68700        
     68800   283.498        176.42122      261.77164      2.9334009      68800        
     68900   295.36182      179.77375      268.69592      10.679881      68900        
     69000   307.55292      180.59786      273.1903      -9.944683       69000        
     69100   292.85129      186.23942      274.40576      2.1174585      69100        
     69200   284.63522      185.5466       271.2394      -2.4296723      69200        
     69300   323.27646      175.56656      272.89275      5.6839525      69300        
     69400   325.33798      176.89554      274.84239     -9.6369923      69400        
     69500   294.9172       185.12281      273.91112      6.0086274      69500        
     69600   303.59148      178.07914      269.47894     -1.3679517      69600        
     69700   279.8115       177.87818      262.11874      8.5305793      69700        
     69800   263.47409      175.51227      254.83426     -16.92992       69800        
     69900   286.6783       181.48427      267.79216      4.1966971      69900        
     70000   311.4711       189.04579      282.81784      9.5151067      70000        
     70100   328.89063      181.40333      280.41974     -8.9881768      70100        
     70200   290.21996      184.33         271.70414     -6.0712198      70200        
     70300   259.51745      183.38024      261.51104      6.2420345      70300        
     70400   245.71478      174.47878      248.45412      5.1451741      70400        
     70500   249.60946      172.21055      247.35843      0.17188963     70500        
     70600   291.5169       177.94116      265.70576      5.1391503      70600        
     70700   318.94396      176.2463       272.26815     -2.1066847      70700        
     70800   282.84913      187.34031      272.49538      3.9570931      70800        
     70900   293.98994      183.08285      271.59199     -4.4730872      70900        
     71000   275.40764      192.83006      275.74479     -10.425194      71000        
     71100   317.57957      189.40797      285.01905     -13.039744      71100        
     71200   327.24786      184.71539      283.23722      11.476168      71200        
     71300   276.85605      182.93643      266.28721      8.902339       71300        
     71400   266.37587      180.28997      260.48557     -0.37240916     71400        
     71500   285.03129      179.38718      265.19922      6.305951       71500        
     71600   297.35824      185.87856      275.40177      13.591313      71600        
     71700   333.79063      188.52944      289.02105     -3.6534802      71700        
     71800   378.1884       192.12234      305.98043      1.5127983      71800        
     71900   313.7694       197.39846      291.86245     -11.618511      71900        
     72000   298.05176      185.22399      274.956        0.48649472     72000        
     72100   312.4811       174.48782      268.56395     -5.3296439      72100        
     72200   259.06489      185.44428      263.43883      13.828639      72200        
     72300   287.39309      180.3235       266.84659      4.8861628      72300        
     72400   297.90942      193.85205      283.54121      6.4077944      72400        
     72500   333.35656      189.59107      289.952       -6.9680524      72500        
     72600   322.69581      179.20511      276.35649     -16.625038      72600        
     72700   280.62181      181.84645      266.33096     -5.473395       72700        
     72800   309.2209       171.9235       265.01811     -1.6772044      72800        
     72900   300.19945      180.27849      270.65708      0.64994801     72900        
     73000   328.52336      190.56506      289.4709      -1.6507395      73000        
     73100   295.59282      209.25509      298.2468       5.7734523      73100        
     73200   342.13838      183.39867      286.40347      5.0406079      73200        
     73300   276.11633      196.81935      279.94743      11.582499      73300        
     73400   328.08932      171.64196      270.41713      3.4081947      73400        
     73500   303.07882      174.12443      265.36989      11.214514      73500        
     73600   258.83336      182.20293      260.12777     -5.464395       73600        
     73700   287.97373      177.62626      264.32415      6.4352304      73700        
     73800   294.90248      195.21526      283.99914      2.2867537      73800        
     73900   281.7414       202.14416      286.96574     -1.1140227      73900        
     74000   338.04794      174.48127      276.25459      0.49254182     74000        
     74100   262.36635      185.19496      264.18345      7.8773938      74100        
     74200   281.41702      176.84129      261.56521      0.60560896     74200        
     74300   269.99654      183.62507      264.91072     -3.2236952      74300        
     74400   319.08026      174.09012      270.153       -5.1368087      74400        
     74500   350.45271      172.79171      278.29964      7.5906918      74500        
     74600   325.55616      186.19907      284.21159      5.7586396      74600        
     74700   348.58327      179.27355      284.21866      3.2566232      74700        
     74800   275.94128      184.6299       267.70528     -7.5401183      74800        
     74900   253.27697      185.63707      261.8891      -8.5040313      74900        
     75000   277.58478      180.90031      264.47049     -0.2217377      75000        
     75100   324.01827      183.66059      281.21012     -1.7508162      75100        
     75200   357.04503      179.40915      286.90177     -5.2625706      75200        
     75300   344.36131      178.29659      281.97063      5.0957017      75300        
     75400   295.32211      187.80124      276.71145     -18.402329      75400        
     75500   300.44631      177.38603      267.83894     -2.1484661      75500        
     75600   280.37553      178.531        262.94137     -6.5767928      75600        
     75700   251.65605      185.17859      260.94261     -6.1292243      75700        
     75800   305.43231      185.40746      277.36147     -6.5018049      75800        
     75900   311.08282      192.75873      286.41389      7.0235832      75900        
     76000   297.62373      189.51806      279.1212       9.8238343      76000        
     76100   264.48389      183.92559      263.55159     -0.90788924     76100        
     76200   279.60719      178.26371      262.44276     -11.191178      76200        
     76300   285.79628      180.77808      266.82043     -0.94492804     76300        
     76400   294.72399      180.75999      269.49013      1.7171739      76400        
     76500   298.12627      180.48675      270.24118      8.2418756      76500        
     76600   311.8411       178.26521      272.14866      2.1289079      76600        
     76700   301.48501      178.01744      268.78307      2.9800237      76700        
     76800   326.9234       167.33484      265.75899     -1.8010563      76800        
     76900   295.53825      180.27495      269.25023      9.516071       76900        
     77000   303.22349      190.08885      281.37786     -19.365221      77000        
     77100   330.27817      187.1464       286.58055     -1.1115202      77100        
     77200   312.76617      177.33702      271.49897     -4.4945976      77200        
     77300   257.71171      182.08439      259.67154      7.3402292      77300        
     77400   278.33819      179.79058      263.58758     -6.9850949      77400        
     77500   310.09397      183.46867      276.82613      4.7598873      77500        
     77600   313.11082      184.16817      278.43388      0.26671372     77600        
     77700   304.2965       179.04175      270.6538       3.9292601      77700        
     77800   241.994        179.00682      251.86198     -8.3976504      77800        
     77900   260.09197      177.00504      255.3088       7.6337972      77900        
     78000   295.10181      178.52334      267.36723     -1.1490351      78000        
     78100   284.62712      186.53206      272.22242      0.56090957     78100        
     78200   293.26254      185.43144      273.72159      14.230129      78200        
     78300   263.03082      197.30749      276.49602      11.48705       78300        
     78400   291.68198      186.47032      274.28462      0.69942078     78400        
     78500   305.97556      175.05098      267.16854      8.8103895      78500        
     78600   297.0678       170.69772      260.13349     -19.712272      78600        
     78700   278.77665      176.36736      260.29637      15.023122      78700        
     78800   278.31109      188.66545      272.45429     -13.95779       78800        
     78900   295.17498      195.66882      284.53474      12.061129      78900        
     79000   305.01504      192.43315      284.26153     -16.342895      79000        
     79100   285.12044      189.94124      275.78012      19.388572      79100        
     79200   303.37167      176.76149      268.09511     -8.4496797      79200        
     79300   302.1871       177.45756      268.43456      17.221336      79300        
     79400   309.87261      177.78669      271.0775      -8.5093403      79400        
     79500   288.04116      190.33673      277.05493      8.7151296      79500        
     79600   282.89195      195.12488      280.29285     -28.032129      79600        
     79700   293.0134       184.94457      273.15972      12.84227       79700        
     79800   279.18034      176.42681      260.47735     -2.3330036      79800        
     79900   290.61334      169.88708      257.37966     -2.4499723      79900        
     80000   294.4862       185.63875      274.2973      -7.5431754      80000        
     80100   300.47226      192.13512      282.59584      5.7088436      80100        
     80200   303.46001      187.50362      278.86384     -10.529532      80200        
     80300   284.15409      182.29975      267.84769      0.11265854     80300        
     80400   289.65929      175.14928      262.35463     -7.4189724      80400        
     80500   307.90371      172.38323      265.08128      8.740093       80500        
     80600   328.49455      187.88167      286.77883     -8.4382783      80600        
     80700   328.0436       190.78301      289.54441      8.1162929      80700        
     80800   287.05742      186.65892      273.08095      4.0336461      80800        
     80900   274.52617      182.93918      265.58853      13.010266      80900        
     81000   283.52153      181.58697      266.94448     -0.14313427     81000        
     81100   287.25867      188.54999      275.03261      15.078299      81100        
     81200   342.95319      194.69189      297.942       -14.327791      81200        
     81300   340.22611      192.75391      295.183        19.369551      81300        
     81400   286.37492      197.05934      283.2759       4.873405       81400        
     81500   303.7314       183.58648      275.02841      5.6268634      81500        
     81600   268.04288      189.10344      269.80092     -2.587392       81600        
     81700   300.01113      175.902        266.22389      1.3456836      81700        
     81800   323.76343      167.96459      265.4374      -5.7815003      81800        
     81900   278.28801      188.96434      272.74624      5.6476862      81900        
     82000   333.15553      182.44953      282.74994     -10.478522      82000        
     82100   327.50554      186.3967       284.99612      10.459887      82100        
     82200   280.32577      191.43605      275.83143     -5.1656479      82200        
     82300   257.96277      183.1799       260.84264     -11.661212      82300        
     82400   307.51359      168.49091      261.07151      0.33517223     82400        
     82500   280.80324      185.36187      269.90101      0.82175569     82500        
     82600   310.53432      182.59479      276.08481     -2.2869422      82600        
     82700   321.1543       179.42076      276.10806     -7.5958598      82700        
     82800   318.61575      175.36991      271.29295     -3.1749209      82800        
     82900   297.2389       177.31067      266.79795      13.573527      82900        
     83000   278.59618      172.00628      255.88095      0.0072676211   83000        
     83100   246.96427      173.80022      248.15173      3.6792238      83100        
     83200   293.54968      175.96826      264.34486     -6.9698071      83200        
     83300   331.85666      177.07506      276.98443     -2.6939834      83300        
     83400   309.19155      187.30038      280.38615      1.0183562      83400        
     83500   307.68734      187.2899       279.92281     -5.7654811      83500        
     83600   272.68384      184.72702      266.82171      1.8468403      83600        
     83700   246.18945      181.0454       255.16364      15.071851      83700        
     83800   303.81541      167.87409      259.34131     -2.7013314      83800        
     83900   314.52569      187.35387      282.04555      9.3738394      83900        
     84000   287.12994      193.76933      280.21319      0.45390485     84000        
     84100   273.63921      190.22777      272.61009      9.5719337      84100        
     84200   304.65928      171.28174      263.00302     -10.238253      84200        
     84300   297.54865      169.82709      259.40763     -1.7950398      84300        
     84400   330.49705      165.3118       264.81185     -6.5678642      84400        
     84500   305.20218      191.0462       282.93093      4.8856967      84500        
     84600   318.68813      188.22096      284.16579     -6.5556281      84600        
     84700   281.84374      183.99267      268.84506     -1.2841618      84700        
     84800   283.31745      175.3779       260.67397     -13.546788      84800        
     84900   272.50806      181.6244       263.66617      11.249345      84900        
     85000   283.97243      185.2096       270.70286     -2.2158431      85000        
     85100   291.7321       186.04393      273.87333     -16.099115      85100        
     85200   302.38238      182.93463      273.97042     -5.1275899      85200        
     85300   288.94917      191.03084      278.02241     -0.2280583      85300        
     85400   360.07583      169.53982      277.9449      -0.54355762     85400        
     85500   292.45095      184.95452      273.00033     -12.973077      85500        
     85600   283.84631      178.44724      263.90252      0.57671025     85600        
     85700   296.07364      174.0084       263.14487      8.0586238      85700        
     85800   298.41939      182.49372      272.33641     -9.9913974      85800        
     85900   310.66811      193.29286      286.82316     -6.5055913      85900        
     86000   330.09431      184.92954      284.30833     -3.1406568      86000        
     86100   299.70475      182.43515      272.6648       2.4922515      86100        
     86200   276.85596      178.08947      261.44023     -0.31751619     86200        
     86300   270.06166      183.86938      265.17464     -0.15683044     86300        
     86400   305.18607      181.1444       273.02428     -13.281636      86400        
     86500   313.30453      187.32811      281.65214      2.7700008      86500        
     86600   329.35864      180.2097       279.36701     -3.8648544      86600        
     86700   258.53         181.37222      259.20573      11.235586      86700        
     86800   272.672        176.07077      258.1619      -1.6106812      86800        
     86900   296.61753      180.73101      270.03122      11.193658      86900        
     87000   294.96648      186.46697      275.27011      0.31075983     87000        
     87100   274.61029      194.21546      276.89014     -2.5686415      87100        
     87200   298.15076      184.33911      274.10092     -1.4158265      87200        
     87300   286.53084      174.16595      260.42944     -2.4853099      87300        
     87400   252.47912      169.82015      245.83198      1.5022626      87400        
     87500   263.63848      175.0966       254.46808      3.2122047      87500        
     87600   241.40009      197.24327      269.91962      3.5146361      87600        
     87700   318.07543      181.53102      277.29138     -4.6592973      87700        
     87800   319.74618      183.99122      280.25458      6.4951531      87800        
     87900   294.82833      190.1322       278.89375     -6.2078365      87900        
     88000   272.54981      179.27275      261.32709     -6.0815537      88000        
     88100   269.31417      174.74645      255.82666     -9.7859414      88100        
     88200   271.21763      185.17982      266.83309      8.3043591      88200        
     88300   284.90232      189.52729      275.3005       4.4395719      88300        
     88400   279.43874      192.19391      276.32224      5.5150529      88400        
     88500   296.6734       185.31411      274.63115      4.1245874      88500        
     88600   308.06829      181.35103      274.09863     -0.29551746     88600        
     88700   261.74184      184.65387      263.45435     -2.5085132      88700        
     88800   257.83842      176.84784      254.47314     -3.4215953      88800        
     88900   299.81092      171.52281      261.78443     -5.6184723      88900        
     89000   288.24456      189.17706      275.95649      0.56613534     89000        
     89100   287.22769      193.62294      280.09623     -2.3554646      89100        
     89200   326.08077      177.09872      275.26919      9.407365       89200        
     89300   265.54748      183.34888      263.29509      4.8482094      89300        
     89400   241.1119       179.15371      251.7433       9.4101398      89400        
     89500   262.81762      184.78326      263.90761      1.3056197      89500        
     89600   286.71812      194.53737      280.85725     -5.2680852      89600        
     89700   338.32226      177.62562      279.48153      4.0238459      89700        
     89800   281.73479      187.81113      272.63072     -0.30055353     89800        
     89900   284.89325      174.44757      260.21805     -6.499428       89900        
     90000   261.57576      181.08573      259.8362      -1.3488542      90000        
     90100   320.61266      186.76922      283.29345     -7.837897       90100        
     90200   331.80723      186.73532      286.62981      0.37597217     90200        
     90300   284.08202      193.62405      279.1503       2.8883551      90300        
     90400   315.22357      171.15327      266.05505      17.617673      90400        
     90500   262.61593      185.71397      264.7776       1.8262898      90500        
     90600   316.45666      172.7389       268.01192      2.9512258      90600        
     90700   275.88016      187.88659      270.94358     -9.4690014      90700        
     90800   269.54838      190.63394      271.78466      2.4666501      90800        
     90900   273.26165      189.13591      271.40456     -14.375513      90900        
     91000   299.20476      183.99955      274.07868     -3.0745729      91000        
     91100   285.25268      192.90991      278.7886      -6.0892979      91100        
     91200   301.98836      188.35854      279.27571      5.3960282      91200        
     91300   306.68024      184.01333      276.34303     -3.9509087      91300        
     91400   311.86484      171.90156      265.79215      5.5506497      91400        
     91500   244.15745      184.29698      257.80347     -11.994345      91500        
     91600   310.59627      175.01365      268.52232     -0.64383785     91600        
     91700   320.13655      187.36925      283.75014     -15.43903       91700        
     91800   328.81639      184.34858      283.34264     -1.0960364      91800        
     91900   281.14924      185.85372      270.49702      1.7491373      91900        
     92000   291.34481      176.91436      264.62716     -5.0721028      92000        
     92100   275.12381      181.24561      264.07489      5.3965166      92100        
     92200   301.42707      181.5549       272.30308     -1.3604597      92200        
     92300   291.88509      186.28194      274.1574      -2.7743431      92300        
     92400   289.92216      185.38857      272.67307     -0.57082295     92400        
     92500   311.41382      175.66619      269.421        10.218631      92500        
     92600   271.59662      186.51036      268.27774      2.6451419      92600        
     92700   302.92441      183.02204      274.22101      4.7049592      92700        
     92800   304.98355      188.76594      280.58484     -3.2101056      92800        
     92900   326.16535      184.51448      282.71041      3.4282376      92900        
     93000   305.22047      182.23143      274.12166      3.7926189      93000        
     93100   311.29721      167.52444      261.24415     -0.060572133    93100        
     93200   280.97361      174.544        259.13442      0.17037221     93200        
     93300   295.21567      183.96604      272.8442      -18.267525      93300        
     93400   295.73286      195.41681      284.45068      2.6802401      93400        
     93500   298.0151       191.01354      280.73451     -0.78073438     93500        
     93600   293.55034      182.67838      271.05518      0.73540384     93600        
     93700   268.6953       183.12668      264.02057     -14.711439      93700        
     93800   293.23593      177.54268      265.82482     -5.4651867      93800        
     93900   315.32558      190.68198      285.61447      3.163136       93900        
     94000   315.51277      193.66844      288.65729      5.4487463      94000        
     94100   294.87438      186.33394      275.10935     -11.51077       94100        
     94200   288.36713      182.15843      268.97476     -0.78811324     94200        
     94300   303.93038      176.08001      267.58184     -1.5752326      94300        
     94400   295.98327      181.92522      271.03448      0.21352481     94400        
     94500   324.14679      179.20133      276.78955      2.7956573      94500        
     94600   314.94655      190.44537      285.26375      1.6495511      94600        
     94700   328.11675      188.16104      286.94446     -10.919611      94700        
     94800   306.17689      180.97775      273.15592     -0.54385315     94800        
     94900   265.08916      184.36893      264.17716     -7.6862942      94900        
     95000   253.72943      190.5809       266.96914     -8.5344081      95000        
     95100   295.46264      188.53209      277.48461      10.127036      95100        
     95200   385.43284      178.88647      294.92558     -0.64862807     95200        
     95300   343.70481      187.37619      290.85259      8.7715467      95300        
     95400   289.44999      191.41685      278.55919     -9.0372354      95400        
     95500   322.32887      170.3111       267.35201      3.6382148      95500        
     95600   304.42696      171.15682      262.80815      12.528138      95600        
     95700   293.09414      182.08045      270.3199       0.91419053     95700        
     95800   350.44642      181.31436      286.8204      -1.9044612      95800        
     95900   326.97385      188.91687      287.35621      0.3803113      95900        
     96000   309.10197      182.28397      275.34277     -7.954952       96000        
     96100   303.01801      179.41555      270.64271      12.171075      96100        
     96200   267.25751      189.187        269.64803     -2.8693782      96200        
     96300   271.62391      192.35496      274.13055      8.2121159      96300        
     96400   280.17634      202.88192      287.23232      1.2942759      96400        
     96500   377.00303      183.77058      297.27179     -2.9159844      96500        
     96600   342.04596      180.12253      283.09951      5.4120785      96600        
     96700   284.25741      181.74809      267.32714     -12.631821      96700        
     96800   309.25709      175.32104      268.42654      1.8330161      96800        
     96900   301.76709      181.56618      272.41673     -3.8857394      96900        
     97000   308.99093      193.44565      286.47102      12.959868      97000        
     97100   351.84421      183.00611      288.93297      8.7448384      97100        
     97200   281.87901      177.30655      262.16956      3.2059087      97200        
     97300   266.98051      177.9357       258.31333      1.5439533      97300        
     97400   295.97878      179.19203      268.29994      9.9723234      97400        
     97500   313.0535       184.60657      278.85502      0.25388977     97500        
     97600   317.17123      186.3689       281.85705     -8.790157       97600        
     97700   265.92601      193.53725      273.59742      7.9017622      97700        
     97800   293.88796      164.45704      252.93548     -10.338059      97800        
     97900   259.03292      176.0689       254.05382      5.7581454      97900        
     98000   317.36348      169.89571      265.44174      6.1554751      98000        
     98100   289.89848      187.18226      274.45962      1.5134774      98100        
     98200   300.39661      187.44983      277.88778      17.54283       98200        
     98300   320.93445      181.87745      278.49856      5.7759181      98300        
     98400   300.0116       180.63186      270.95389     -9.0047763      98400        
     98500   291.00596      174.8768       262.48758     -0.82134356     98500        
     98600   257.50202      181.71448      259.23851     -17.831978      98600        
     98700   313.32447      178.33147      272.6615       2.9424619      98700        
     98800   345.83739      181.8901       286.00853     -0.50550945     98800        
     98900   314.10075      187.69915      282.26289      0.17541571     98900        
     99000   342.64778      168.33226      271.49043     -0.39281045     99000        
     99100   283.31136      183.59076      268.88499     -9.5483165      99100        
     99200   285.47984      181.84588      267.79296      9.3976301      99200        
     99300   321.3449       174.97428      271.71896      1.6557911      99300        
     99400   337.48469      186.70999      288.31375      3.1315253      99400        
     99500   321.7006       199.45924      296.311        5.7916496      99500        
     99600   321.9041       183.69302      280.60605     -4.5768306      99600        
     99700   332.58679      173.87255      274.00173      3.6745927      99700        
     99800   291.36687      183.15484      270.87428     -11.269927      99800        
     99900   305.96501      174.6394       266.75378      5.15492        99900        
    100000   275.50742      182.71653      265.66129     -12.977818      100000       
Loop time of 11.6327 on 6 procs for 100000 steps with 102 atoms

Performance: 742.737 ns/day, 0.032 hours/ns, 8596.488 timesteps/s
99.7% CPU use with 6 MPI tasks x no OpenMP threads

MPI task timing breakdown:
Section |  min time  |  avg time  |  max time  |%varavg| %total
---------------------------------------------------------------
Pair    | 0.0035331  | 0.58654    | 2.5929     | 121.5 |  5.04
Bond    | 0.0049246  | 0.66691    | 2.2064     | 104.8 |  5.73
Kspace  | 5.7722     | 8.9777     | 10.246     |  53.1 | 77.18
Neigh   | 0.11107    | 0.11309    | 0.11645    |   0.7 |  0.97
Comm    | 0.031879   | 0.66074    | 1.2226     |  59.0 |  5.68
Output  | 0.0092175  | 0.010449   | 0.015982   |   2.4 |  0.09
Modify  | 0.16499    | 0.50722    | 1.1246     |  61.0 |  4.36
Other   |            | 0.11       |            |       |  0.95

Nlocal:             17 ave          69 max           0 min
Histogram: 4 0 0 1 0 0 0 0 0 1
Nghost:        117.667 ave         198 max           0 min
Histogram: 2 0 0 0 0 0 1 0 0 3
Neighs:        742.167 ave        3988 max           0 min
Histogram: 5 0 0 0 0 0 0 0 0 1

Total # of neighbors = 4453
Ave neighs/atom = 43.656863
Ave special neighs/atom = 12.019608
Neighbor list builds = 1911
Dangerous builds = 0
write_restart  system.${epoch}.restart
write_restart  system.1.restart
System init for write_restart ...
PPPM initialization ...
  using 12-bit tables for long-range coulomb (../kspace.cpp:340)
  G vector (1/distance) = 0.092609207
  grid = 8 8 8
  stencil order = 5
  estimated absolute RMS force accuracy = 0.03309473
  estimated relative force accuracy = 9.9663797e-05
  using double precision KISS FFT
  3d grid and FFT values/proc = 936 128
  generated 2346 of 2346 mixed pair_coeff terms from geometric mixing rule
if          "${epoch} >= 50" then "jump SELF break"
next        epoch
jump        SELF loop
print       "EPOCH = ${epoch}"
EPOCH = 2
run         100000  # 100 ps each time
PPPM initialization ...
  using 12-bit tables for long-range coulomb (../kspace.cpp:340)
  G vector (1/distance) = 0.092609207
  grid = 8 8 8
  stencil order = 5
  estimated absolute RMS force accuracy = 0.03309473
  estimated relative force accuracy = 9.9663797e-05
  using double precision KISS FFT
  3d grid and FFT values/proc = 936 128
  generated 2346 of 2346 mixed pair_coeff terms from geometric mixing rule
Per MPI rank memory allocation (min/avg/max) = 13.7 | 14.67 | 15.48 Mbytes
   Step          Temp          PotEng         TotEng         Press           Time     
    100000   275.50742      182.71653      265.66129     -12.977818      100000       
    100100   268.7997       186.09765      267.02297      12.728384      100100       
    100200   326.53188      182.75271      281.059       -1.5438844      100200       
    100300   324.93215      188.35904      286.18371      8.6450273      100300       
    100400   282.14387      188.24149      273.18424     -0.60125452     100400       
    100500   278.45472      173.99158      257.82366      4.0416873      100500       
    100600   279.32638      175.09759      259.1921      -10.070288      100600       
    100700   292.65088      179.65734      267.76335      2.3635925      100700       
    100800   267.63708      189.05831      269.63361      2.1093899      100800       
    100900   297.85241      182.89343      272.56542      2.7558139      100900       
    101000   280.99449      195.30168      279.89839     -4.2832127      101000       
    101100   336.36865      190.5246       291.79236     -10.94437       101100       
    101200   320.6333       189.65982      286.19026     -5.8034129      101200       
    101300   332.09199      168.25672      268.23694      1.2796573      101300       
    101400   290.52753      173.36616      260.8329       13.588653      101400       
    101500   291.84344      177.36442      265.22734     -1.4413173      101500       
    101600   327.99745      183.16495      281.91245      1.0498918      101600       
    101700   311.17156      200.41443      294.09631      12.361811      101700       
    101800   329.9532       190.50688      289.84319     -5.4763103      101800       
    101900   292.38521      188.1087       276.13472     -4.9609733      101900       
    102000   304.62105      173.94944      265.6592       3.9979229      102000       
    102100   316.77897      171.45587      266.82592      13.903201      102100       
    102200   320.27818      186.00929      282.43282      5.8780695      102200       
    102300   328.01244      195.88833      294.64035     -1.8795004      102300       
    102400   318.58812      187.25189      283.16661     -2.9017083      102400       
    102500   321.88351      175.2318       272.13864      1.7781581      102500       
    102600   346.42021      166.74032      271.03422     -8.3324393      102600       
    102700   308.09605      177.62815      270.3841      -5.4899846      102700       
    102800   239.98202      191.30142      263.55084     -4.6577368      102800       
    102900   277.22829      180.1636       263.62646      1.576494       102900       
    103000   310.54278      177.38866      270.88123      9.6191721      103000       
    103100   327.24243      184.46071      282.98091     -3.5672987      103100       
    103200   327.14056      186.71292      285.20245      3.2431528      103200       
    103300   279.52588      182.27163      266.4262       1.3122953      103300       
    103400   296.42513      168.55143      257.79371     -3.8760315      103400       
    103500   275.54508      182.98031      265.93641     -14.92379       103500       
    103600   296.38262      187.11107      276.34056     -10.586495      103600       
    103700   317.08582      186.54474      282.00717      1.9337122      103700       
    103800   317.01936      183.3503       278.79272     -14.494202      103800       
    103900   295.71216      184.909        273.93664     -5.1853412      103900       
    104000   278.91963      186.43893      270.41098      1.6063024      104000       
    104100   282.74774      181.34005      266.4646       0.30540742     104100       
    104200   291.79521      181.27008      269.11848      12.423254      104200       
    104300   309.92863      187.44774      280.75541     -8.6740018      104300       
    104400   313.7791       195.00682      289.47373     -2.393621       104400       
    104500   331.62133      184.65113      284.48964     -19.738985      104500       
    104600   272.21982      183.62972      265.58472     -0.41766858     104600       
    104700   286.55985      178.71399      264.98622     -9.0246189      104700       
    104800   331.25572      169.14579      268.87424     -0.97847101     104800       
    104900   295.59912      180.53219      269.5258       7.4049946      104900       
    105000   344.30735      186.34553      290.00333      13.642577      105000       
    105100   353.36533      190.33011      296.71492      10.478654      105100       
    105200   330.74402      181.80977      281.38416      7.7995282      105200       
    105300   293.30059      181.87349      270.1751       5.6967081      105300       
    105400   288.4072       183.14264      269.97104     -0.50544733     105400       
    105500   312.6892       177.88025      272.01903     -5.2156991      105500       
    105600   332.87062      184.33399      284.54862      0.12761864     105600       
    105700   309.95895      201.19391      294.51072      6.5098293      105700       
    105800   333.35648      183.75374      284.11465     -5.2396623      105800       
    105900   278.51445      183.20257      267.05264     -10.789584      105900       
    106000   294.68477      177.12709      265.84542     -6.8079802      106000       
    106100   338.32196      171.24663      273.10245     -8.0284987      106100       
    106200   315.15828      191.39249      286.27461      8.2903516      106200       
    106300   322.91717      192.7958       290.01383      2.0644619      106300       
    106400   302.28186      182.4056       273.41113     -0.034667981    106400       
    106500   307.59493      169.86463      262.46972      0.27050003     106500       
    106600   261.04922      183.56199      262.15394     -10.214249      106600       
    106700   323.9973       177.67542      275.21864     -5.3555012      106700       
    106800   354.36401      179.42433      286.1098       6.7724958      106800       
    106900   318.07196      184.98432      280.74364      1.0460951      106900       
    107000   301.23083      184.93231      275.62141      0.3725612      107000       
    107100   282.90599      186.63013      271.80232     -2.6772014      107100       
    107200   288.55586      181.52691      268.40006     -11.216989      107200       
    107300   290.98702      186.48888      274.09396      4.1609326      107300       
    107400   335.30902      188.35556      289.3043      -9.4309317      107400       
    107500   320.79854      190.70023      287.28042      3.0232835      107500       
    107600   305.44554      180.43067      272.38866     -14.962482      107600       
    107700   286.73897      181.12564      267.45179      16.434935      107700       
    107800   318.98198      174.34056      270.37385      5.6227636      107800       
    107900   288.35965      188.36241      275.17648     -3.7341384      107900       
    108000   290.45009      196.31461      283.75804      11.761086      108000       
    108100   362.44606      183.05682      292.17549      14.532665      108100       
    108200   296.46231      191.36401      280.61749      7.3451304      108200       
    108300   300.3027       174.90156      265.31123      4.5711783      108300       
    108400   302.20518      174.07953      265.06197      11.089588      108400       
    108500   302.99347      178.05295      269.27272      3.7590525      108500       
    108600   322.74041      190.36374      287.52856      0.92460827     108600       
    108700   356.61688      189.92115      297.28487     -8.4214297      108700       
    108800   327.47627      191.37964      289.97024      5.1849801      108800       
    108900   301.28828      188.48685      279.19324      1.7539127      108900       
    109000   302.38391      180.98805      272.0243       4.7635127      109000       
    109100   279.58254      180.79541      264.96704     -0.42602031     109100       
    109200   250.64294      186.12002      261.57904     -7.6752901      109200       
    109300   309.71696      181.25653      274.50048      6.4546007      109300       
    109400   315.3009       189.65136      284.57643     -0.5667837      109400       
    109500   335.64209      179.28155      280.33057     -13.846228      109500       
    109600   303.98797      175.14804      266.66721      6.3840513      109600       
    109700   261.61505      183.25654      262.01885     -4.4770377      109700       
    109800   282.57875      180.53032      265.60399     -3.732586       109800       
    109900   281.85238      184.65473      269.50972      0.26686306     109900       
    110000   316.29805      182.60016      277.82543      6.5170411      110000       
    110100   315.81509      195.83788      290.91774     -5.7486602      110100       
    110200   367.73553      192.81387      303.52499     -6.9903058      110200       
    110300   335.75879      195.234        296.31815      10.561578      110300       
    110400   326.63233      175.6326       273.96912     -4.3216584      110400       
    110500   305.92047      172.29065      264.39162     -3.3180566      110500       
    110600   274.53104      182.51347      265.16428     -0.41808212     110600       
    110700   288.24894      186.37251      273.15325      13.707383      110700       
    110800   301.9869       197.34786      288.26459      9.7220588      110800       
    110900   296.74314      192.69055      282.02858      13.009675      110900       
    111000   294.75708      186.86285      275.60295      10.497836      111000       
    111100   306.61309      180.38011      272.68961      5.3088585      111100       
    111200   283.96902      185.0008       270.49302     -2.4750703      111200       
    111300   285.51342      188.85837      274.81556     -2.558997       111300       
    111400   319.30811      193.13659      289.26806     -6.887951       111400       
    111500   362.4009       181.52929      290.63436     -4.9161251      111500       
    111600   273.814        187.43597      269.87091      10.006303      111600       
    111700   321.23695      167.95082      264.663        2.7735971      111700       
    111800   310.40038      174.25818      267.70788      2.011897       111800       
    111900   271.915        189.78747      271.65069     -0.46907868     111900       
    112000   351.39484      182.7076       288.49917      2.4352938      112000       
    112100   346.09116      189.40179      293.59662      10.465152      112100       
    112200   327.03307      180.46952      278.92669     -9.2328891      112200       
    112300   304.92667      178.85943      270.66121     -6.5398404      112300       
    112400   282.70859      181.85896      266.97172      1.0338459      112400       
    112500   287.78741      179.86575      266.50755      14.068946      112500       
    112600   284.93614      190.48254      276.26593      5.9112271      112600       
    112700   361.28371      182.87094      291.63967      1.3639386      112700       
    112800   331.38138      190.00784      289.77412      8.7674066      112800       
    112900   331.70095      178.72305      278.58554     -2.0271111      112900       
    113000   298.34158      182.97527      272.79453     -12.958963      113000       
    113100   274.5043       191.73757      274.38033     -7.963961       113100       
    113200   307.11566      180.68701      273.14781     -7.0698222      113200       
    113300   335.15028      177.95961      278.86056      5.8200793      113300       
    113400   351.12531      179.0912       284.80162      13.654107      113400       
    113500   280.28343      190.62769      275.01033     -2.6517445      113500       
    113600   288.66187      177.01955      263.92462      8.2389536      113600       
    113700   292.70467      174.59611      262.71831      1.4488447      113700       
    113800   314.40404      181.02147      275.67652     -1.4567981      113800       
    113900   338.4968       186.25375      288.16221      1.1309967      113900       
    114000   344.82688      177.14698      280.96118     -23.113279      114000       
    114100   263.74388      190.87206      270.27527      8.1143359      114100       
    114200   262.46661      187.24441      266.26309     -1.4307767      114200       
    114300   320.18435      177.00702      273.4023       2.1237793      114300       
    114400   302.73563      204.96534      296.10748      19.962421      114400       
    114500   327.74632      191.4593       290.1312       0.055355292    114500       
    114600   316.24224      183.9324       279.14086     -5.7251303      114600       
    114700   296.75524      186.32169      275.66336     -14.301608      114700       
    114800   304.28758      179.51445      271.12382     -1.9540408      114800       
    114900   310.5338       172.54796      266.03783      7.2953445      114900       
    115000   299.76595      162.34026      252.58835     -10.41893       115000       
    115100   258.55017      173.03868      250.87826      1.6458098      115100       
    115200   288.57888      179.02992      265.91         21.235175      115200       
    115300   276.1674       192.81372      275.95718     -9.8275921      115300       
    115400   307.58271      186.60689      279.2083       0.52370246     115400       
    115500   317.01231      179.01223      274.45253     -10.172209      115500       
    115600   280.82392      178.33364      262.879       -13.640441      115600       
    115700   276.03034      170.21275      253.31494      4.4724246      115700       
    115800   273.71271      179.17602      261.58046      1.6945396      115800       
    115900   334.5656       180.35451      281.07943      3.1274998      115900       
    116000   302.23253      192.043        283.03367      8.6162532      116000       
    116100   303.62274      183.33841      274.74762     -4.9602286      116100       
    116200   281.09864      178.2266       262.85467      2.1505863      116200       
    116300   272.33912      175.2214       257.21231     -7.2542322      116300       
    116400   260.61343      190.50911      268.96986     -4.2870882      116400       
    116500   315.85441      179.17389      274.26559      6.9736747      116500       
    116600   317.01648      181.0388       276.48036     -9.7373475      116600       
    116700   351.30605      173.89772      279.66256      2.0813986      116700       
    116800   286.63447      188.06641      274.36111      5.9000515      116800       
    116900   280.61304      176.2811       260.76297     -4.7380327      116900       
    117000   262.12422      179.21201      258.1276      -0.13188887     117000       
    117100   295.24616      186.31988      275.20722      9.9434674      117100       
    117200   319.46542      187.05045      283.22929     -5.9024794      117200       
    117300   304.20193      191.20155      282.78513     -11.074578      117300       
    117400   307.06483      176.28473      268.73023     -0.36256275     117400       
    117500   285.08026      177.78757      263.61435      8.8160151      117500       
    117600   276.84235      183.02952      266.37618     -8.1066443      117600       
    117700   300.65735      197.64522      288.16167      1.4338231      117700       
    117800   306.35962      197.77848      290.01166     -0.13933601     117800       
    117900   296.49036      186.85663      276.11855      7.4876545      117900       
    118000   278.92534      184.48873      268.4625      -6.8635713      118000       
    118100   299.78303      177.0808       267.33403      3.8530023      118100       
    118200   293.10502      187.34069      275.58342      1.4151448      118200       
    118300   324.91745      201.30594      299.12617     -3.9733653      118300       
    118400   333.40766      192.16533      292.54164      1.9244001      118400       
    118500   318.16811      182.33982      278.12809      1.0213897      118500       
    118600   324.34421      170.83926      268.48692     -2.0203811      118600       
    118700   290.82894      178.55051      266.108       -2.7305483      118700       
    118800   282.10784      181.39354      266.32544     -4.4901386      118800       
    118900   321.97886      187.66799      284.60353      4.7167066      118900       
    119000   324.08092      192.5947       290.16309     -3.606265       119000       
    119100   301.11312      185.76776      276.42142      6.7596235      119100       
    119200   303.901        176.87444      268.36742     -0.20519716     119200       
    119300   285.78468      184.15367      270.19252      4.1830572      119300       
    119400   308.18887      177.64626      270.43016     -0.47209427     119400       
    119500   338.8124       174.43406      276.43753      5.0755073      119500       
    119600   351.38657      185.80849      291.59757      3.3227694      119600       
    119700   326.44833      190.05549      288.33662     -0.088708502    119700       
    119800   260.15676      195.44179      273.76506     -15.442632      119800       
    119900   271.18133      186.03712      267.67946     -1.1593335      119900       
    120000   305.58108      179.15359      271.15238     -4.5392654      120000       
    120100   319.09647      181.10167      277.16943     -0.48378978     120100       
    120200   296.50791      186.1712       275.43841     -0.48283096     120200       
    120300   329.30945      173.21986      272.36236      8.9009128      120300       
    120400   301.87845      178.70944      269.59352      1.3064309      120400       
    120500   294.07139      180.60536      269.13902      8.9320857      120500       
    120600   319.68377      176.39614      272.64072     -3.4606347      120600       
    120700   288.87196      193.83541      280.80373      7.6117163      120700       
    120800   348.86596      184.93449      289.96471      0.2321619      120800       
    120900   356.40292      183.18433      290.48364     -2.5230544      120900       
    121000   280.75202      187.21383      271.73754      2.5806482      121000       
    121100   302.29424      171.60836      262.61761      8.803262       121100       
    121200   300.61618      176.38958      266.89363     -3.6576793      121200       
    121300   286.8857       189.41102      275.78135     -3.988506       121300       
    121400   315.34532      196.18113      291.11956      3.9568012      121400       
    121500   325.79415      189.62988      287.71406      4.2983211      121500       
    121600   294.50209      183.06007      271.72341     -11.475705      121600       
    121700   295.30301      181.51261      270.41708      4.3925946      121700       
    121800   331.79109      169.79428      269.68391      11.709776      121800       
    121900   324.618        170.13993      267.87002      9.5054459      121900       
    122000   263.43977      194.01807      273.32973     -3.9740787      122000       
    122100   319.24453      187.50081      283.61315      15.794452      122100       
    122200   326.73127      191.09004      289.45635     -8.2027759      122200       
    122300   297.22726      180.23695      269.72073      3.7708041      122300       
    122400   288.01447      175.93438      262.64454     -7.8555915      122400       
    122500   307.20423      174.89714      267.3846       13.122696      122500       
    122600   294.89373      188.63386      277.41511     -5.1623429      122600       
    122700   334.38704      187.88438      288.55555      3.2357431      122700       
    122800   359.03955      182.91808      291.01118      5.3260927      122800       
    122900   298.41926      180.69914      270.54178     -6.0270883      122900       
    123000   276.30811      180.5003       263.68612     -6.5634358      123000       
    123100   315.64464      172.50494      267.53349     -2.416559       123100       
    123200   298.64844      188.30641      278.21806      5.7772945      123200       
    123300   324.14061      185.89781      283.48417     -0.8757596      123300       
    123400   311.13572      185.31307      278.98415     -3.5385415      123400       
    123500   300.50891      173.16883      263.64059      1.7404782      123500       
    123600   311.35054      166.24072      259.97648      4.6552604      123600       
    123700   278.44978      183.72197      267.55256      2.6703607      123700       
    123800   312.70703      186.28771      280.43185     -2.4403041      123800       
    123900   319.11539      183.15395      279.22741      8.9849271      123900       
    124000   288.88187      187.49048      274.46178      3.836846       124000       
    124100   310.60389      179.83953      273.3505       3.4277437      124100       
    124200   318.09596      181.16143      276.92798     -0.10684721     124200       
    124300   294.6923       192.81056      281.53116     -8.2883084      124300       
    124400   300.78066      187.8062       278.35977     -2.2504554      124400       
    124500   300.84259      179.62592      270.19813      5.8724861      124500       
    124600   256.58299      186.66579      263.91313      7.6681055      124600       
    124700   270.94531      181.03543      262.60672      2.6840353      124700       
    124800   299.61711      185.34553      275.5488       2.6095682      124800       
    124900   309.31964      196.42713      289.55146     -1.7698343      124900       
    125000   339.10204      181.36383      283.4545       6.6207685      125000       
    125100   275.17521      187.14923      269.99398     -4.3952409      125100       
    125200   288.88308      179.78769      266.75935     -1.95066        125200       
    125300   293.40028      183.02975      271.36137      26.431569      125300       
    125400   339.3326       175.72007      277.88016     -10.143079      125400       
    125500   278.41406      187.42685      271.2467       2.9418564      125500       
    125600   244.14504      182.13613      255.63888     -6.4925386      125600       
    125700   284.27386      173.4918       259.0758       1.3480321      125700       
    125800   296.97085      181.49818      270.90476     -9.1913452      125800       
    125900   320.6084       178.17193      274.69488     -24.985797      125900       
    126000   315.28773      177.70707      272.62817     -4.8627498      126000       
    126100   307.07449      177.40475      269.85315     -1.3203744      126100       
    126200   305.4549       168.77911      260.73992      8.9839092      126200       
    126300   248.94856      177.79992      252.74882      0.41275452     126300       
    126400   275.51211      178.62142      261.5676       7.9680718      126400       
    126500   302.00298      188.88964      279.81121     -4.5656592      126500       
    126600   303.93518      185.8023       277.30558     -9.081624       126600       
    126700   312.46247      174.47243      268.54295     -24.543538      126700       
    126800   276.56106      179.40491      262.66688     -6.5518576      126800       
    126900   257.5503       189.71934      267.2579      -8.5230402      126900       
    127000   313.51385      189.35386      283.7409       6.1832429      127000       
    127100   312.84677      192.46832      286.65454     -3.453362       127100       
    127200   278.63372      189.3452       273.23118      6.5603378      127200       
    127300   301.5464       171.7044       262.48851      3.1671564      127300       
    127400   285.58202      177.67819      263.65603     -3.7518372      127400       
    127500   334.13189      169.13955      269.7339      -5.31736        127500       
    127600   311.83863      188.22724      282.10995      5.0353768      127600       
    127700   326.8526       204.87516      303.278       -2.7482651      127700       
    127800   320.85621      194.17929      290.77684     -3.3742324      127800       
    127900   327.30686      178.03619      276.57579      2.5146608      127900       
    128000   349.04204      163.42389      268.50712      14.064399      128000       
    128100   266.10471      185.18991      265.30388     -1.3964256      128100       
    128200   297.81979      173.01688      262.67905      7.8572267      128200       
    128300   265.12933      177.68922      257.50954     -7.0485121      128300       
    128400   304.01432      171.77481      263.30191      5.9227181      128400       
    128500   336.40357      176.3158       277.59407      1.4857084      128500       
    128600   301.61442      190.33748      281.14207      11.923928      128600       
    128700   277.85137      193.94643      277.59687      1.3426739      128700       
    128800   273.58617      178.47028      260.83663      0.50459513     128800       
    128900   274.29756      174.39018      256.9707      -0.875226       128900       
    129000   296.88625      174.82161      264.20272     -7.5002502      129000       
    129100   310.88542      175.96119      269.55692      3.5063828      129100       
    129200   315.64818      179.60452      274.63414     -17.718257      129200       
    129300   325.85021      180.67074      278.77179      3.5971992      129300       
    129400   304.15293      191.61439      283.18322     -0.69537052     129400       
    129500   292.93205      188.09357      276.28422     -7.5244053      129500       
    129600   284.8653       178.8299       264.59197      16.670718      129600       
    129700   277.28929      179.54828      263.0295      -11.123301      129700       
    129800   280.64471      189.38268      273.87409      9.8316613      129800       
    129900   297.52568      194.8933       284.46692     -6.9607744      129900       
    130000   307.32114      190.2792       282.80186     -0.25010484     130000       
    130100   290.05345      186.83941      274.16343     -9.8527799      130100       
    130200   315.75433      173.37465      268.43622     -11.791594      130200       
    130300   293.88695      175.30106      263.7792       11.529691      130300       
    130400   295.35718      179.37608      268.29685      10.598425      130400       
    130500   300.37174      181.2648       271.69526     -1.9750993      130500       
    130600   315.07629      178.24754      273.10498      2.6816046      130600       
    130700   306.14765      191.87906      284.04843     -4.2668382      130700       
    130800   350.66803      196.50537      302.07813      3.4002777      130800       
    130900   356.25319      192.11311      299.36734      0.57683824     130900       
    131000   319.11533      179.28105      275.35449      11.796926      131000       
    131100   283.12218      183.04749      268.28477     -2.7183588      131100       
    131200   310.59641      171.69131      265.20002      6.1890157      131200       
    131300   289.85255      179.10657      266.3701      -2.2319038      131300       
    131400   295.39873      193.54113      282.4744       9.4241217      131400       
    131500   346.56089      185.83193      290.16818      7.4472775      131500       
    131600   290.73294      192.37209      279.90067     -7.4075444      131600       
    131700   301.2671       175.92664      266.62666      6.87168        131700       
    131800   294.23908      176.76959      265.35374      10.811179      131800       
    131900   288.79644      181.24954      268.19512     -15.947576      131900       
    132000   309.89665      182.62026      275.91831     -0.46831026     132000       
    132100   321.82375      185.4641       282.35294     -6.9517389      132100       
    132200   282.65143      195.36953      280.46508      1.1177702      132200       
    132300   279.78157      183.85854      268.09008     -5.2607771      132300       
    132400   291.96521      172.67296      260.57253      8.2381221      132400       
    132500   291.38525      179.44337      267.16834     -5.3218129      132500       
    132600   307.27538      190.90958      283.41846      14.230692      132600       
    132700   330.126        182.81822      282.20655     -4.8827421      132700       
    132800   308.99872      180.79123      273.81895     -3.2364688      132800       
    132900   264.87208      184.92847      264.67134      0.080566617    132900       
    133000   285.05686      178.18106      264.0008       1.814011       133000       
    133100   331.58659      177.21535      277.04341      5.4636169      133100       
    133200   306.15059      203.74004      295.91029      5.6758457      133200       
    133300   349.97127      180.423        285.78599      9.787322       133300       
    133400   318.81098      176.36617      272.34799     -10.473909      133400       
    133500   312.95716      171.66648      265.88593     -0.44381819     133500       
    133600   280.13411      181.83089      266.16858      12.410594      133600       
    133700   277.30172      197.44883      280.93379     -5.437152       133700       
    133800   319.43034      196.20389      292.37217     -7.0085387      133800       
    133900   324.20645      188.09489      285.70107      7.7736841      133900       
    134000   315.49212      181.69725      276.67988     -9.2953994      134000       
    134100   291.50078      180.62873      268.38848     -1.3593909      134100       
    134200   272.04757      180.9543       262.85743     -18.783411      134200       
    134300   275.69749      177.15902      260.16101     -11.230445      134300       
    134400   252.32081      194.29398      270.25814     -6.8288882      134400       
    134500   318.91297      185.20028      281.2128      -3.6787978      134500       
    134600   299.54036      192.05046      282.23062      4.450904       134600       
    134700   281.18307      185.14326      269.79675      2.5604348      134700       
    134800   270.42781      177.47487      258.89036     -10.691311      134800       
    134900   256.56254      182.1003       259.34148      5.725621       134900       
    135000   272.82508      184.04503      266.18224      8.0833298      135000       
    135100   285.58447      184.80899      270.78756     -12.390047      135100       
    135200   306.69736      178.57775      270.91262      0.04578378     135200       
    135300   294.87273      189.14553      277.92045      0.29500511     135300       
    135400   318.07637      191.26742      287.02807      1.318202       135400       
    135500   328.73302      200.42058      299.38953     -4.8336514      135500       
    135600   321.06346      190.86553      287.52548     -8.7390628      135600       
    135700   283.82982      185.77175      271.22207      17.425332      135700       
    135800   321.33957      171.31599      268.05906     -12.027899      135800       
    135900   293.37806      178.38615      266.71108     -4.9183652      135900       
    136000   315.93334      178.28732      273.40279     -11.125625      136000       
    136100   333.32378      186.05313      286.40419      17.366813      136100       
    136200   284.07296      201.30027      286.82379      13.709175      136200       
    136300   281.59633      186.28413      271.06203      6.8157237      136300       
    136400   281.47404      173.41216      258.15324     -0.28133589     136400       
    136500   308.9757       169.10565      262.12644      8.0104453      136500       
    136600   284.85997      191.20715      276.96761     -8.2472969      136600       
    136700   317.10365      188.34929      283.81709     -1.2094476      136700       
    136800   297.91342      182.44314      272.1335      -13.201488      136800       
    136900   256.60095      174.37463      251.62737     -14.251729      136900       
    137000   279.41514      174.98085      259.10208     -6.283946       137000       
    137100   303.90783      182.17813      273.67317      0.76687571     137100       
    137200   343.32362      175.75088      279.11251      5.8980469      137200       
    137300   322.1417       178.61917      275.60374      2.096619       137300       
    137400   291.60793      176.9882       264.78021     -2.3657682      137400       
    137500   250.75293      175.58708      251.07921      8.9812928      137500       
    137600   295.40739      164.87814      253.81403     -9.0797941      137600       
    137700   316.38529      171.09422      266.34575     -13.353667      137700       
    137800   323.96323      170.74573      268.27868     -3.1556487      137800       
    137900   320.83068      178.31628      274.90615      3.2852595      137900       
    138000   316.2185       191.03131      286.23262     -0.4312134      138000       
    138100   295.34482      194.85469      283.77173      10.679465      138100       
    138200   308.73693      173.95556      266.90446      7.2313235      138200       
    138300   288.16299      171.80848      258.56336     -5.8738042      138300       
    138400   285.77908      177.66582      263.70299      0.50512508     138400       
    138500   305.17452      186.16313      278.03952     -19.026201      138500       
    138600   310.80959      186.21324      279.78614      13.186859      138600       
    138700   297.16327      184.5971       274.06162     -0.83806904     138700       
    138800   308.81512      175.37731      268.34976      7.7598429      138800       
    138900   264.97598      174.4597       254.23385      11.933128      138900       
    139000   265.01117      171.45701      251.24176     -2.465258       139000       
    139100   314.83727      180.90808      275.69356      8.6131981      139100       
    139200   317.30852      185.28132      280.8108       4.449802       139200       
    139300   316.89687      181.39557      276.80112      1.0446634      139300       
    139400   280.43834      182.84664      267.27592     -1.9977541      139400       
    139500   254.35646      180.18083      256.75785     -10.698691      139500       
    139600   285.61056      175.30969      261.29612      5.5896077      139600       
    139700   297.03343      195.8415       285.26693     -3.284431       139700       
    139800   356.46794      178.30759      285.62647      8.1812695      139800       
    139900   325.91238      179.13275      277.25252     -3.738764       139900       
    140000   304.1946       177.93832      269.5197      -3.1851891      140000       
    140100   291.66186      176.30726      264.11551     -3.8025862      140100       
    140200   294.15131      176.42387      264.9816      -5.0917643      140200       
    140300   310.87895      181.36677      274.96055     -6.1167578      140300       
    140400   333.49176      184.8635       285.26514      17.897277      140400       
    140500   311.22217      188.13223      281.82934     -11.593463      140500       
    140600   287.92377      179.061        265.74385      2.2807167      140600       
    140700   279.0301       175.87847      259.88378      1.8658725      140700       
    140800   330.47053      164.25964      263.7517      -1.9906431      140800       
    140900   313.50288      173.56986      267.95361     -1.6073128      140900       
    141000   285.40186      184.37155      270.29515     -8.8882438      141000       
    141100   306.21259      180.10332      272.29224     -2.5395774      141100       
    141200   309.9913       179.23271      272.55925      8.8552481      141200       
    141300   329.7139       178.961        278.22526     -5.5550083      141300       
    141400   323.06469      188.59991      285.86235      8.1891431      141400       
    141500   328.24717      183.89284      282.71553     -3.6456587      141500       
    141600   291.15703      178.19452      265.85079      0.63987307     141600       
    141700   289.10733      175.53258      262.57176      3.5401967      141700       
    141800   296.2924       180.27791      269.48023      1.5367711      141800       
    141900   310.18323      188.70385      282.08817      0.28349864     141900       
    142000   319.96436      193.88409      290.21314      2.8015724      142000       
    142100   354.57479      175.83292      282.58185      4.5057744      142100       
    142200   294.5988       184.246        272.93844      5.3924456      142200       
    142300   303.2826       171.93625      263.24306      9.2367403      142300       
    142400   293.77607      173.89091      262.33567      4.8388488      142400       
    142500   286.16527      188.33037      274.4838       1.6040368      142500       
    142600   324.015        189.11183      286.66037      7.4688196      142600       
    142700   314.66774      188.41272      283.14716     -5.3097839      142700       
    142800   312.48794      175.48091      269.5591      -5.3155734      142800       
    142900   264.30452      185.22649      264.79849     -14.963085      142900       
    143000   297.49903      178.71429      268.27989      5.5161715      143000       
    143100   274.07773      188.99736      271.5117       9.5871458      143100       
    143200   289.49702      182.5205       269.67699      7.5374142      143200       
    143300   302.17647      173.44805      264.42184      11.516839      143300       
    143400   304.94509      164.76375      256.57107      8.8560101      143400       
    143500   276.55905      179.19914      262.46051      5.276753       143500       
    143600   281.02366      195.14642      279.75192     -18.340101      143600       
    143700   309.60755      189.48344      282.69446      0.66083702     143700       
    143800   274.0305       191.38526      273.88538     -17.23622       143800       
    143900   318.55216      160.77159      256.67549     -7.7284352      143900       
    144000   249.6155       174.23053      249.38023     -7.4361977      144000       
    144100   271.82984      173.89239      255.72998      3.7052549      144100       
    144200   285.58721      178.281        264.2604       0.32059016     144200       
    144300   302.04982      183.17357      274.10923     -1.0994636      144300       
    144400   299.54945      189.61451      279.79741     -6.8718255      144400       
    144500   295.94611      182.67842      271.77649      10.084798      144500       
    144600   281.47668      167.6046       252.34648     -1.7252336      144600       
    144700   266.91686      170.81946      251.17794      5.2335019      144700       
    144800   301.82709      175.98871      266.85732     -7.16219        144800       
    144900   316.116        178.90322      274.07368      10.031866      144900       
    145000   312.16747      181.40029      275.382        0.785275       145000       
    145100   290.60503      183.54433      271.03441      11.008648      145100       
    145200   280.12396      173.37909      257.71372     -1.486471       145200       
    145300   268.78437      169.34222      250.26293      4.3714811      145300       
    145400   306.0739       170.98284      263.13        -6.1391272      145400       
    145500   312.68807      180.17989      274.31833      1.1691515      145500       
    145600   292.06846      184.83511      272.76577      3.0700572      145600       
    145700   295.18424      178.25191      267.12061      1.0771242      145700       
    145800   249.44641      184.00321      259.102       -1.5208199      145800       
    145900   275.38515      170.53142      253.43937      2.0645444      145900       
    146000   311.01236      168.00059      261.63454      3.9141549      146000       
    146100   327.35495      180.63479      279.18887     -0.21012548     146100       
    146200   327.30857      181.89012      280.43023      3.1453777      146200       
    146300   313.74195      178.07199      272.52771      14.31488       146300       
    146400   283.2545       173.85297      259.13008     -14.00592       146400       
    146500   296.10194      166.55802      255.703       -2.5511979      146500       
    146600   291.31762      176.59305      264.29767      6.2356573      146600       
    146700   314.45179      177.7458       272.41523      9.188296       146700       
    146800   288.19079      191.91178      278.67503      9.6009021      146800       
    146900   316.83988      185.54604      280.93443     -2.5220522      146900       
    147000   276.69569      182.23027      265.53278     -8.1270828      147000       
    147100   267.64744      174.54156      255.11998     -1.4313364      147100       
    147200   272.61429      180.20514      262.2789      -19.491195      147200       
    147300   335.30079      173.94432      274.89059     -5.3954424      147300       
    147400   339.87181      177.64552      279.96795     -2.820308       147400       
    147500   310.71982      181.9626       275.50848      7.4425015      147500       
    147600   303.54394      180.07145      271.45694      8.2209245      147600       
    147700   295.03559      176.23875      265.0627      -5.7251162      147700       
    147800   248.18424      180.57625      255.29505     -10.438132      147800       
    147900   253.43675      173.90146      250.20159     -6.5762878      147900       
    148000   308.64725      172.75573      265.67763     -4.2658824      148000       
    148100   308.977        184.13814      277.15932     -7.0474711      148100       
    148200   312.49057      184.76114      278.84012      8.4667009      148200       
    148300   288.8584       180.3732       267.33744     -1.0623496      148300       
    148400   255.04499      176.71228      253.49659     -3.8399813      148400       
    148500   274.61887      174.05787      256.73513     -8.0604894      148500       
    148600   310.0838       174.90677      268.26116      4.2751723      148600       
    148700   279.66411      186.46873      270.66491     -13.586008      148700       
    148800   323.78938      177.77043      275.25105      3.6009715      148800       
    148900   308.97018      181.28872      274.30784     -12.141913      148900       
    149000   276.9376       183.7833       267.15864     -5.3236097      149000       
    149100   260.37586      177.97637      256.3656      -2.1460436      149100       
    149200   254.63464      180.3317       256.99247      6.89843        149200       
    149300   322.10362      177.26789      274.24099     -6.2502556      149300       
    149400   318.40542      182.46027      278.31998      24.662401      149400       
    149500   329.48303      176.18598      275.38074     -5.4298156      149500       
    149600   320.73508      168.65416      265.21525      5.882394       149600       
    149700   260.16209      176.71685      255.04172     -5.4862524      149700       
    149800   283.85916      176.59067      262.04982     -1.0147597      149800       
    149900   325.65252      185.06769      283.10923     -0.40603992     149900       
    150000   303.78281      190.46125      281.91865      2.6960325      150000       
    150100   280.97311      189.95702      274.54729      6.4974767      150100       
    150200   286.03022      176.67871      262.79149     -8.4230516      150200       
    150300   303.16477      170.21842      261.48975     -0.42831514     150300       
    150400   300.7327       190.08556      280.62469      5.6620651      150400       
    150500   336.13616      191.17872      292.37649     -3.4404267      150500       
    150600   309.41642      185.01091      278.16438      8.2937541      150600       
    150700   306.04427      172.9462       265.08444      14.064966      150700       
    150800   292.56545      176.76908      264.84936     -8.8003739      150800       
    150900   313.95336      178.24704      272.76641     -3.494697       150900       
    151000   335.68464      186.75802      287.81985      0.94696392     151000       
    151100   365.37512      190.35143      300.35193      10.200217      151100       
    151200   291.4677       202.44798      290.19778     -11.441389      151200       
    151300   305.64983      188.29848      280.31797     -1.2564458      151300       
    151400   253.38093      194.14709      270.43041      13.133997      151400       
    151500   303.23824      170.98075      262.2742       1.9467204      151500       
    151600   271.61293      182.59356      264.36584     -4.5993712      151600       
    151700   326.90138      182.94309      281.36062      1.5855274      151700       
    151800   305.2192       199.48122      291.37106      1.1702524      151800       
    151900   295.49657      191.37912      280.34185      6.8098977      151900       
    152000   290.60556      182.77398      270.26422      3.2560377      152000       
    152100   302.29529      177.63201      268.64158      8.6344085      152100       
    152200   275.11299      188.96821      271.79423     -2.5760594      152200       
    152300   330.68749      184.39884      283.95622     -1.2150243      152300       
    152400   318.56075      205.53166      301.43813     -17.33843       152400       
    152500   364.186        178.82724      288.46973     -12.679208      152500       
    152600   307.83635      175.46263      268.1404       4.6390553      152600       
    152700   298.10498      176.68799      266.43602     -0.088053308    152700       
    152800   303.83588      177.83367      269.30705      0.51475602     152800       
    152900   301.73261      188.67235      279.51252     -5.981435       152900       
    153000   303.22665      196.51259      287.80255      7.2889602      153000       
    153100   333.87787      172.66076      273.17864     -5.931027       153100       
    153200   294.30436      173.22398      261.82778      2.5372806      153200       
    153300   297.62366      175.69111      265.29423      4.0789258      153300       
    153400   327.79955      178.22123      276.90916     -13.062091      153400       
    153500   308.16557      187.56782      280.3447       5.9202306      153500       
    153600   288.12544      190.76634      277.50991     -12.270717      153600       
    153700   267.17886      191.74627      272.18362      12.735684      153700       
    153800   279.13643      185.03406      269.07138     -1.5833454      153800       
    153900   302.76444      177.64999      268.8008       4.9581583      153900       
    154000   293.91575      194.73066      283.21747     -9.7203859      154000       
    154100   335.11553      191.24938      292.13987     -0.063208598    154100       
    154200   303.5211       187.93956      279.31817      1.0457984      154200       
    154300   287.96528      178.83979      265.53514      8.245356       154300       
    154400   286.57097      178.37515      264.65073      2.6484778      154400       
    154500   301.46929      180.69364      271.45453      16.191458      154500       
    154600   331.13399      188.12144      287.81324      0.86434617     154600       
    154700   344.61278      197.80582      301.55557     -5.1308297      154700       
    154800   315.20643      182.7972       277.69382      2.1339274      154800       
    154900   271.03332      183.83684      265.43462      5.3822785      154900       
    155000   258.01371      188.10193      265.78         1.9350594      155000       
    155100   306.79249      179.4756       271.83911     -11.745558      155100       
    155200   326.42074      183.46422      281.73705      5.2125082      155200       
    155300   316.8423       189.85764      285.24676      2.7588059      155300       
    155400   301.91199      180.04788      270.94205      7.8749577      155400       
    155500   266.58729      179.46576      259.72502      12.172724      155500       
    155600   265.77551      184.73368      264.74853      13.190397      155600       
    155700   289.51913      188.90029      276.06345      16.433673      155700       
    155800   342.29264      176.38077      279.43201     -1.9658278      155800       
    155900   297.12461      186.19921      275.65208     -11.499104      155900       
    156000   320.38782      175.76605      272.22259     -20.086451      156000       
    156100   325.20416      171.15135      269.05791     -0.017832875    156100       
    156200   279.61374      186.53522      270.71624     -1.5777892      156200       
    156300   310.45852      181.02813      274.49533     -0.84018299     156300       
    156400   317.93308      197.22542      292.94293      11.288562      156400       
    156500   352.38191      189.42172      295.51046      14.54277       156500       
    156600   300.6047       184.76241      275.26301      4.6016351      156600       
    156700   308.89493      177.80239      270.79886      3.5031948      156700       
    156800   298.72571      178.24142      268.17633      5.5341394      156800       
    156900   285.12631      184.18056      270.0212       8.1097469      156900       
    157000   292.5151       194.68876      282.75388     -13.937022      157000       
    157100   299.73725      201.40266      291.6421      -6.115506       157100       
    157200   308.07235      187.43445      280.18327      0.51940774     157200       
    157300   281.56088      177.61167      262.3789       2.072759       157300       
    157400   289.68133      178.45311      265.66509      8.2710744      157400       
    157500   258.9334       192.34537      270.30033     -0.47789976     157500       
    157600   354.56257      175.90252      282.64777      3.5532881      157600       
    157700   326.87285      192.10819      290.51713     -6.2851286      157700       
    157800   285.08961      195.48416      281.31375     -20.602901      157800       
    157900   289.00242      177.09575      264.10334      3.0647442      157900       
    158000   298.91588      173.45359      263.44575     -9.4298254      158000       
    158100   294.03413      184.10617      272.62862     -8.7814668      158100       
    158200   295.29959      197.17021      286.07364     -15.634886      158200       
    158300   324.51608      188.19684      285.89624      10.863014      158300       
    158400   297.28659      172.98223      262.48387     -15.186365      158400       
    158500   281.43021      172.79181      257.5197       14.293534      158500       
    158600   266.28746      186.29146      266.46044     -7.8608627      158600       
    158700   307.99632      186.77024      279.49617      12.129445      158700       
    158800   271.57145      200.77122      282.53101     -3.1784349      158800       
    158900   338.66758      172.07946      274.03934      6.2429447      158900       
    159000   282.20381      171.55875      256.51954      5.1525868      159000       
    159100   266.23741      179.22877      259.38268     -1.0088182      159100       
    159200   286.48325      181.70525      267.95442      4.2871246      159200       
    159300   319.15501      178.93083      275.01622      0.23074403     159300       
    159400   304.09083      182.5439       274.09404     -6.2656032      159400       
    159500   303.51485      182.15006      273.52679     -8.6000641      159500       
    159600   293.43811      182.27024      270.61325      4.1348194      159600       
    159700   271.44649      174.57464      256.29681     -8.1882542      159700       
    159800   270.72075      170.8053       252.30898     -5.482364       159800       
    159900   255.7395       185.07381      262.06721     -11.268738      159900       
    160000   282.22771      189.58592      274.5539       15.399507      160000       
    160100   299.82921      188.30158      278.56871     -4.6576402      160100       
    160200   322.46271      177.78105      274.86225      7.8169702      160200       
    160300   296.48169      174.82687      264.08618     -1.3489475      160300       
    160400   267.31004      172.13456      252.6114       7.1978778      160400       
    160500   276.65328      172.24598      255.53572      3.5398172      160500       
    160600   343.11424      168.31777      271.61636     -3.686837       160600       
    160700   313.84205      181.96935      276.45521     -0.05154365     160700       
    160800   270.70242      191.80636      273.30452     -16.27707       160800       
    160900   290.99173      179.16075      266.76725      10.455049      160900       
    161000   284.72753      174.7221       260.44269     -9.4898237      161000       
    161100   281.81618      176.08441      260.9285       3.1740525      161100       
    161200   308.56463      184.11315      277.01017     -0.21927741     161200       
    161300   323.09367      185.35794      282.62911      1.3819451      161300       
    161400   319.80458      178.23594      274.51689     -2.5380277      161400       
    161500   268.40114      180.16631      260.97165     -6.3640629      161500       
    161600   293.29471      171.68165      259.98149      3.192858       161600       
    161700   280.64931      182.80904      267.30183     -8.8330147      161700       
    161800   318.78833      180.32163      276.29662     -21.344358      161800       
    161900   312.69123      185.9516       280.09099      1.6735104      161900       
    162000   312.85481      176.743        270.93164      9.4536243      162000       
    162100   266.38341      174.95763      255.1555      -9.3518179      162100       
    162200   311.20832      166.23557      259.92851      5.3551578      162200       
    162300   249.60981      197.96863      273.11662      2.8328798      162300       
    162400   329.15062      179.85454      278.94922     -0.88315227     162400       
    162500   303.70174      185.41226      276.84526     -6.1714796      162500       
    162600   316.7779       177.90467      273.2744      -3.1850378      162600       
    162700   276.68654      179.46581      262.76557      13.994718      162700       
    162800   243.62808      177.4409       250.78802     -6.6435705      162800       
    162900   276.93068      170.5893       253.96256      2.2748162      162900       
    163000   272.87457      186.76098      268.91309      7.8608637      163000       
    163100   306.41225      182.57295      274.82198      0.91303568     163100       
    163200   288.71208      184.73997      271.66015     -1.6089089      163200       
    163300   277.69647      181.51589      265.11969     -7.8661028      163300       
    163400   268.49814      170.06073      250.89527      10.671911      163400       
    163500   281.20484      168.39135      253.05139      2.9611203      163500       
    163600   299.48215      183.89899      274.06163     -5.5659948      163600       
    163700   318.61749      182.51857      278.44213     -7.2099537      163700       
    163800   329.88493      174.61033      273.92609      2.5836114      163800       
    163900   283.82977      175.09611      260.54642      2.8539989      163900       
    164000   263.42719      178.65753      257.9654       6.1466917      164000       
    164100   307.66763      185.80874      278.43572      1.3303822      164100       
    164200   332.21916      187.13845      287.15696      1.461675       164200       
    164300   310.34638      184.5254       277.95884      6.2331274      164300       
    164400   281.22865      182.80111      267.46831     -13.048427      164400       
    164500   278.23132      177.72844      261.49327     -16.020837      164500       
    164600   293.60718      178.31933      266.71325      1.0117758      164600       
    164700   317.18037      180.96492      276.45581      0.66611536     164700       
    164800   346.36785      195.67619      299.95432      3.00188        164800       
    164900   344.5705       190.65968      294.3967      -3.1628422      164900       
    165000   282.60833      193.98746      279.07004      5.2236421      165000       
    165100   289.68078      179.24087      266.45269     -9.0112119      165100       
    165200   312.51599      165.98858      260.07521      3.5368471      165200       
    165300   284.48478      177.52587      263.17337     -3.0232599      165300       
    165400   290.16277      192.01138      279.36831     -17.403415      165400       
    165500   339.05425      186.25348      288.32977      7.5974795      165500       
    165600   329.76696      182.82398      282.10422     -5.2871844      165600       
    165700   269.00807      189.31939      270.30745      0.56750872     165700       
    165800   275.03744      185.84058      268.64385      4.3962866      165800       
    165900   325.29945      171.54689      269.48214     -7.5320587      165900       
    166000   297.94041      182.66205      272.36053      8.0643892      166000       
    166100   299.06448      183.13241      273.1693      -2.4758136      166100       
    166200   285.84128      185.41041      271.46631     -2.1086637      166200       
    166300   288.94226      184.10882      271.09831     -10.622153      166300       
    166400   284.92263      184.46183      270.24115     -15.483323      166400       
    166500   311.08721      178.66525      272.32173      8.0210229      166500       
    166600   322.01235      185.82251      282.76813      13.25596       166600       
    166700   333.05284      186.09493      286.36443      1.8853052      166700       
    166800   294.627        181.80044      270.50138      2.8055711      166800       
    166900   273.52083      179.29089      261.63757     -4.7147814      166900       
    167000   326.63146      166.68836      265.02462     -8.5414835      167000       
    167100   284.82414      191.44407      277.19374     -0.65214818     167100       
    167200   304.88293      193.22351      285.01212      2.4118634      167200       
    167300   326.09566      179.06368      277.23863      12.616483      167300       
    167400   265.57773      175.85553      255.81084     -8.4350766      167400       
    167500   309.99693      167.90192      261.23016      8.8144171      167500       
    167600   295.45236      187.57166      276.52109      15.191351      167600       
    167700   341.68993      177.91142      280.78121     -10.245495      167700       
    167800   322.67439      174.38729      271.53223     -5.6495255      167800       
    167900   247.32966      179.74776      254.20927      6.7630792      167900       
    168000   279.92351      170.54706      254.82134      6.5983773      168000       
    168100   286.31433      174.85612      261.05444      0.17060119     168100       
    168200   309.76584      177.94759      271.20626      12.883629      168200       
    168300   299.63994      187.26964      277.47978     -8.9520763      168300       
    168400   302.4715       187.81111      278.87373      0.17996249     168400       
    168500   289.92274      170.88736      258.17202      0.75030777     168500       
    168600   251.10927      175.32867      250.92808      5.7941575      168600       
    168700   308.54889      170.58632      263.4786       1.3126304      168700       
    168800   300.77292      182.71713      273.26837     -9.1362589      168800       
    168900   295.70174      188.14783      277.17233     -4.4806908      168900       
    169000   270.7386       191.33251      272.84156     -4.1809116      169000       
    169100   273.48062      175.9703       258.30487     -2.0492014      169100       
    169200   256.84601      172.58822      249.91474     -1.4991416      169200       
    169300   288.74556      171.6425       258.57276      8.8590593      169300       
    169400   303.05995      178.69421      269.93399      8.0371562      169400       
    169500   286.85146      186.29493      272.65495      25.269201      169500       
    169600   279.0532       188.77628      272.78854     -3.3388313      169600       
    169700   305.64544      176.14466      268.16283      5.1934359      169700       
    169800   295.98259      169.26715      258.37621      5.3137987      169800       
    169900   276.54785      169.96507      253.22306     -12.43597       169900       
    170000   300.89475      166.26515      256.85307      4.1372561      170000       
    170100   295.19264      186.48484      275.35607     -5.4218622      170100       
    170200   312.79023      187.70055      281.86975      23.938424      170200       
    170300   293.33476      187.41008      275.72197      2.3025342      170300       
    170400   266.93536      183.76846      264.1325       13.499674      170400       
    170500   287.2255       173.12992      259.60255     -10.345917      170500       
    170600   279.48642      182.826        266.96869      10.874589      170600       
    170700   327.92229      181.52364      280.24852     -10.815883      170700       
    170800   318.53526      189.35482      285.25362     -6.4820127      170800       
    170900   292.87835      187.38064      275.55513     -15.721503      170900       
    171000   266.6907       180.13777      260.42816      3.2634073      171000       
    171100   251.73594      182.99273      258.78081     -0.43630989     171100       
    171200   297.77898      176.49563      266.14551      0.91013289     171200       
    171300   272.56429      191.90311      273.96181     -4.3656069      171300       
    171400   286.87667      188.94237      275.30998     -5.2359767      171400       
    171500   279.36635      190.23018      274.33672     -2.3885413      171500       
    171600   290.78421      185.38543      272.92945     -6.1200684      171600       
    171700   303.52385      178.74231      270.12176     -2.4507401      171700       
    171800   270.38548      178.19256      259.59531     -3.3395045      171800       
    171900   247.69173      173.57255      248.14307     -4.1273737      171900       
    172000   274.76299      172.83104      255.55168      0.34746631     172000       
    172100   272.29029      189.63007      271.60628     -6.7568476      172100       
    172200   285.34709      190.1553       276.06242      7.3536452      172200       
    172300   323.13493      174.54826      271.83185      11.087407      172300       
    172400   261.62209      183.36895      262.13337      11.467896      172400       
    172500   258.48188      175.52674      253.34577     -8.6910899      172500       
    172600   299.12775      172.96682      263.02277      4.3319856      172600       
    172700   279.62548      195.59968      279.78423      2.105623       172700       
    172800   343.78788      178.17704      281.67844      1.1844762      172800       
    172900   311.75854      178.71911      272.5777       5.2761589      172900       
    173000   291.01652      168.51337      256.12734     -2.0830133      173000       
    173100   285.84877      170.29373      256.35188      24.806109      173100       
    173200   283.03561      177.78392      262.99513     -14.228136      173200       
    173300   339.89624      170.66845      272.99823      4.6038362      173300       
    173400   331.88658      177.24703      277.16541      2.6026066      173400       
    173500   291.04397      187.84861      275.47083     -2.4355506      173500       
    173600   297.65183      172.18026      261.79186     -11.588377      173600       
    173700   245.32386      176.4073       250.26495      5.9483564      173700       
    173800   261.08622      178.82701      257.4301      -5.0940087      173800       
    173900   324.43684      171.4298       269.10534      2.4794719      173900       
    174000   298.41532      182.90646      272.74792     -10.631544      174000       
    174100   283.33089      188.29228      273.59239      2.2454473      174100       
    174200   286.76057      179.08334      265.416       -0.86471509     174200       
    174300   267.76881      170.13161      250.74658     -0.34200963     174300       
    174400   252.56605      178.69539      254.73338     -5.5761324      174400       
    174500   324.24752      172.62726      270.24581     -18.152124      174500       
    174600   319.4378       177.12859      273.29912     -2.9425134      174600       
    174700   298.08556      181.59821      271.34038     -10.89294       174700       
    174800   295.97672      177.03068      266.13797     -1.5519591      174800       
    174900   255.20627      180.65018      257.48305     -6.1793896      174900       
    175000   297.92092      168.14352      257.83613      0.20888383     175000       
    175100   309.97795      180.64354      273.96606     -3.3518521      175100       
    175200   325.69578      184.66272      282.71729      11.301603      175200       
    175300   332.4465       177.55166      277.63861     -3.3689657      175300       
    175400   274.22866      183.77356      266.33333     -2.8837647      175400       
    175500   271.27091      178.74649      260.4158       1.1096228      175500       
    175600   322.95114      170.49599      267.72425     -4.8755613      175600       
    175700   337.29389      193.6287       295.17501     -0.93843653     175700       
    175800   344.40145      185.88718      289.5733       0.13363459     175800       
    175900   317.19017      175.57532      271.06917     -3.7616886      175900       
    176000   274.75811      178.69877      261.41795      11.838413      176000       
    176100   298.70076      174.0967       264.02409      0.072213601    176100       
    176200   284.45958      190.79121      276.43113      14.360477      176200       
    176300   377.49278      174.32829      287.97695      5.0774689      176300       
    176400   298.59913      192.87835      282.77514      4.6034333      176400       
    176500   295.12481      187.36962      276.22043     -6.127123       176500       
    176600   311.46573      178.14316      271.9136      -0.63458005     176600       
    176700   315.78488      173.72716      268.79793     -6.4654087      176700       
    176800   313.6675       174.89553      269.32884      0.26224571     176800       
    176900   275.25036      190.19775      273.06512      6.6355207      176900       
    177000   277.54234      195.53108      279.08848     -6.1015655      177000       
    177100   278.76496      196.24742      280.1729       3.0637045      177100       
    177200   277.98885      186.28121      269.97304     -7.0927419      177200       
    177300   268.70907      175.14627      256.04431      8.2985615      177300       
    177400   283.03816      174.25762      259.4696      -6.2519494      177400       
    177500   315.08454      180.64557      275.5055       6.2687498      177500       
    177600   318.50937      185.22929      281.1203      -3.7251421      177600       
    177700   330.3227       177.44361      276.89116     -8.2750895      177700       
    177800   252.79584      187.75344      263.86062     -7.3000991      177800       
    177900   274.62445      177.2541       259.93304     -1.4540506      177900       
    178000   293.63529      179.12409      267.52646     -5.0659496      178000       
    178100   354.15416      180.11217      286.73446      3.1649668      178100       
    178200   321.95003      188.60918      285.53604     -13.028651      178200       
    178300   282.40546      188.52067      273.54217      8.7060157      178300       
    178400   278.19763      180.49407      264.24875     -2.7007277      178400       
    178500   301.87586      175.31426      266.19755      4.6252111      178500       
    178600   295.93497      181.72264      270.81736      10.859046      178600       
    178700   287.56752      184.49139      271.06699      0.064646991    178700       
    178800   267.56329      189.0213       269.57439      12.923442      178800       
    178900   291.30158      183.73635      271.43613      0.74044256     178900       
    179000   294.45354      184.44002      273.08873      2.7876939      179000       
    179100   309.27494      190.71279      283.82366      5.8415698      179100       
    179200   316.63419      192.66292      287.98938     -6.7747707      179200       
    179300   312.85745      177.91077      272.1002       11.315575      179300       
    179400   292.95721      174.98521      263.18344     -12.877857      179400       
    179500   283.79245      179.1747       264.61377     -5.5616466      179500       
    179600   287.91179      187.00616      273.68541     -4.8425109      179600       
    179700   287.50918      199.3019       285.85994     -4.8594603      179700       
    179800   298.44745      187.93641      277.78754     -4.9722122      179800       
    179900   255.00623      178.48757      255.26021      5.1055221      179900       
    180000   279.44224      175.52929      259.65868     -10.951583      180000       
    180100   296.00009      183.8622       272.97652      5.5979418      180100       
    180200   315.70206      187.33926      282.38509     -0.92785604     180200       
    180300   321.81725      182.05699      278.94387     -4.3447004      180300       
    180400   270.53893      182.00299      263.45193     -3.9265063      180400       
    180500   265.57566      175.33368      255.28837     -8.778611       180500       
    180600   286.82646      175.08868      261.44118      9.8563086      180600       
    180700   281.57864      181.32053      266.09311     -4.9358299      180700       
    180800   294.29007      182.32774      270.92724      9.747318       180800       
    180900   275.73381      196.84092      279.85384      12.99659       180900       
    181000   339.56172      186.86487      289.09393      6.3525937      181000       
    181100   320.03825      203.31354      299.66484      1.6879949      181100       
    181200   338.78985      182.41844      284.41513      18.202031      181200       
    181300   302.59331      178.88043      269.97972      0.38203682     181300       
    181400   296.24572      178.81228      268.00055      0.8761045      181400       
    181500   313.17662      172.75388      267.0394      -10.47482       181500       
    181600   310.95533      184.67203      278.28881      6.6512684      181600       
    181700   339.79851      187.36625      289.6666      -3.9443957      181700       
    181800   321.36995      180.12158      276.8738       1.3354952      181800       
    181900   288.45667      173.17103      260.01431      11.85317       181900       
    182000   257.23003      184.35874      261.80088      1.1069076      182000       
    182100   335.19009      171.24022      272.15316     -0.0067782845   182100       
    182200   311.00194      189.77285      283.40366     -2.3477691      182200       
    182300   342.19673      183.11853      286.1409      -0.53844221     182300       
    182400   293.96038      178.61166      267.1119      -9.5442289      182400       
    182500   284.4985       173.677        259.32864     -10.161829      182500       
    182600   281.66024      180.48044      265.27759      0.74562311     182600       
    182700   294.11482      188.75767      277.30441      1.7430291      182700       
    182800   337.33196      181.36185      282.91962     -3.3612656      182800       
    182900   285.73799      191.19868      277.22348     -7.1712446      182900       
    183000   257.31964      177.98849      255.45761      7.2130941      183000       
    183100   277.04509      172.73143      256.13912      5.1300359      183100       
    183200   301.69956      179.65852      270.48873      1.8971308      183200       
    183300   307.68753      184.80396      277.43692      8.7736275      183300       
    183400   287.17551      191.45126      277.90884     -4.9489213      183400       
    183500   276.90822      190.22155      273.58804     -5.5753181      183500       
    183600   266.54252      173.81657      254.06235      6.342607       183600       
    183700   269.82975      167.27179      248.50723      1.3947404      183700       
    183800   268.13942      180.36401      261.09055     -4.385357       183800       
    183900   287.84325      185.82498      272.48359     -3.6563737      183900       
    184000   311.68511      184.43863      278.27511      16.627536      184000       
    184100   324.93027      180.43543      278.25953      9.0534907      184100       
    184200   298.41221      176.52052      266.36104      0.65965625     184200       
    184300   285.93201      167.26205      253.34525     -1.724695       184300       
    184400   278.60575      173.72772      257.60527     -5.6647053      184400       
    184500   282.90652      184.61984      269.7922      -10.137531      184500       
    184600   293.2913       184.93139      273.2302      -7.0985009      184600       
    184700   299.37186      183.83458      273.96401      1.7161691      184700       
    184800   274.99258      185.37191      268.16167      9.5889033      184800       
    184900   255.49341      179.38535      256.30467      4.4931881      184900       
    185000   273.3569       171.90628      254.20361     -5.1910001      185000       
    185100   311.29382      178.21772      271.93641      0.89356193     185100       
    185200   329.87805      177.89277      277.20645      4.247217       185200       
    185300   272.50213      194.71365      276.75363      1.2702018      185300       
    185400   287.13556      180.92328      267.36884      9.0600256      185400       
    185500   290.42968      165.30676      252.74405      9.6146679      185500       
    185600   295.46522      157.9692       246.92249     -1.7219093      185600       
    185700   282.39235      178.60422      263.62178     -0.34576081     185700       
    185800   267.19421      197.65336      278.09534      7.6461896      185800       
    185900   297.16485      192.06211      281.52709      5.6129555      185900       
    186000   318.72717      180.42782      276.3844      -0.77649555     186000       
    186100   244.28598      193.26558      266.81076      2.3508746      186100       
    186200   298.42188      168.85463      258.69806      5.579985       186200       
    186300   284.90751      179.66956      265.44433      6.5131309      186300       
    186400   342.83751      180.34576      283.56105     -1.7487457      186400       
    186500   333.01087      179.72292      279.97977      4.7751988      186500       
    186600   277.86255      187.81366      271.46747     -3.9056073      186600       
    186700   290.99104      174.80323      262.40952      1.5210872      186700       
    186800   279.28734      177.85449      261.93725      3.9437664      186800       
    186900   329.58707      178.31381      277.53989      7.4340781      186900       
    187000   335.47379      186.72619      287.72453     -9.2532087      187000       
    187100   331.0668       183.55092      283.22249     -6.8455323      187100       
    187200   306.35821      181.1073       273.34006     -6.3661484      187200       
    187300   294.97616      181.03032      269.83638     -0.19928604     187300       
    187400   260.37005      192.36694      270.75442     -13.595757      187400       
    187500   295.62896      185.42921      274.4318      -3.805911       187500       
    187600   332.11142      192.8083       292.79437     -5.054161       187600       
    187700   352.73603      186.21813      292.41348     -3.6630741      187700       
    187800   312.81262      182.62599      276.80193     -1.5961777      187800       
    187900   310.88474      179.54301      273.13853      12.342892      187900       
    188000   276.36383      187.4395       270.6421      -0.87939362     188000       
    188100   284.31123      179.22477      264.82002     -0.089470022    188100       
    188200   283.83983      179.21479      264.66813      3.1980394      188200       
    188300   327.71881      175.80199      274.46561     -0.74875133     188300       
    188400   361.83191      174.41112      283.34489     -0.6184167      188400       
    188500   279.50408      195.48696      279.63496     -7.0176004      188500       
    188600   269.75301      179.22679      260.43912      2.2634654      188600       
    188700   286.94128      173.80934      260.1964      -4.1386726      188700       
    188800   303.87915      173.16785      264.65425      15.284409      188800       
    188900   324.62542      173.62526      271.35758      19.859728      188900       
    189000   300.48841      182.33682      272.80241      1.3289938      189000       
    189100   256.25975      196.35135      273.50138     -6.8902314      189100       
    189200   291.80151      170.88358      258.73388      7.3668583      189200       
    189300   243.37807      171.38513      244.65697      2.3484391      189300       
    189400   278.08186      173.64437      257.3642      -3.5164518      189400       
    189500   295.28365      183.30521      272.20384     -8.4544465      189500       
    189600   312.44699      183.45945      277.52531      8.1906527      189600       
    189700   326.90193      177.4062       275.82389     -1.3953163      189700       
    189800   255.99424      187.56882      264.63892     -12.461174      189800       
    189900   288.10281      164.4595       251.19626     -10.394398      189900       
    190000   265.27174      178.49648      258.35968     -3.9054576      190000       
    190100   315.27911      178.11533      273.03383     -4.7185253      190100       
    190200   311.29503      182.91486      276.63391      1.2328809      190200       
    190300   300.74714      182.18916      272.73264     -3.1008749      190300       
    190400   278.2416       179.86388      263.6318       5.2418918      190400       
    190500   286.57709      170.16454      256.44196      6.2138288      190500       
    190600   275.1872       186.87796      269.72632     -3.7011399      190600       
    190700   333.61094      184.63459      285.0721      -14.696355      190700       
    190800   316.99984      185.49795      280.9345      -6.955434       190800       
    190900   261.61256      190.97692      269.73847     -14.412808      190900       
    191000   273.78021      181.01494      263.43971     -0.59648352     191000       
    191100   279.20265      182.32049      266.37775     -19.070768      191100       
    191200   311.73198      175.65791      269.5085       3.7548634      191200       
    191300   311.56854      176.2009       270.00229     -4.5778881      191300       
    191400   314.59151      175.81825      270.52974     -0.8060072      191400       
    191500   282.02664      184.86512      269.77257      4.4598672      191500       
    191600   326.36145      176.47606      274.73103     -6.0684967      191600       
    191700   330.49262      183.71095      283.20966      15.580797      191700       
    191800   303.951        189.37791      280.88595     -9.150851       191800       
    191900   280.76414      179.06739      263.59475      3.9354803      191900       
    192000   282.84505      176.36458      261.51842      7.0395904      192000       
    192100   281.62287      183.39682      268.18272     -3.382651       192100       
    192200   313.18759      182.71535      277.00418      18.150975      192200       
    192300   352.22329      169.88892      275.9299      -3.3443723      192300       
    192400   290.55598      186.44813      273.92344      2.8911618      192400       
    192500   299.22861      182.85116      272.93747      3.2880188      192500       
    192600   284.4173       187.8643       273.49149      9.2014978      192600       
    192700   303.0171       187.17056      278.39744     -6.7762541      192700       
    192800   309.59006      185.53749      278.74324      4.1838204      192800       
    192900   304.88005      173.37816      265.1659       11.41656       192900       
    193000   257.65874      179.69324      257.26444      3.3075886      193000       
    193100   267.11543      182.34343      262.76169      2.8643426      193100       
    193200   317.96806      184.56986      280.2979      -8.948235       193200       
    193300   330.78867      183.1682       282.75603     -0.179094       193300       
    193400   299.09935      187.39639      277.44378     -2.1195663      193400       
    193500   294.464        177.17266      265.82452      5.554294       193500       
    193600   282.65184      174.14718      259.24286     -1.7694217      193600       
    193700   262.74841      184.8252       263.92871      0.28704223     193700       
    193800   303.33931      190.74641      282.07029      5.1116366      193800       
    193900   326.05324      186.58966      284.75184     -3.500948       193900       
    194000   283.95923      186.56264      272.05192     -4.4512273      194000       
    194100   274.24798      181.26158      263.82717      5.7184571      194100       
    194200   298.32397      178.80898      268.62293      9.8586127      194200       
    194300   306.96054      187.51257      279.92666     -7.0094949      194300       
    194400   308.1567       200.39791      293.17212     -6.9990566      194400       
    194500   326.42056      210.2028       308.47556     -7.4397493      194500       
    194600   376.33244      179.22388      292.52321     -7.9229533      194600       
    194700   272.07513      191.75602      273.66746     -5.7689105      194700       
    194800   276.30729      180.09589      263.28146      3.2079379      194800       
    194900   302.42355      172.35005      263.39824      8.0034337      194900       
    195000   290.46733      185.08041      272.52903     -6.3264227      195000       
    195100   319.30388      192.17671      288.30692     -10.555841      195100       
    195200   323.06909      188.59263      285.8564       20.588011      195200       
    195300   285.36913      189.92089      275.83464     -9.999479       195300       
    195400   319.50421      174.26341      270.45392      1.0832496      195400       
    195500   315.2345       172.38336      267.28844      6.0421854      195500       
    195600   313.12856      177.97472      272.24577      4.2154011      195600       
    195700   347.62718      183.1698       287.82707      16.271901      195700       
    195800   350.40533      186.38176      291.87542      3.2677713      195800       
    195900   276.42923      189.02535      272.24764     -21.504409      195900       
    196000   301.07345      173.01706      263.65878      10.921535      196000       
    196100   312.72288      169.82135      263.97027     -4.5214203      196100       
    196200   319.99086      177.46358      273.80061      0.21333033     196200       
    196300   310.33783      192.20214      285.63302     -1.8609149      196300       
    196400   290.2326       203.50432      290.88227     -0.6833158      196400       
    196500   305.7111       175.49351      267.53145     -10.093588      196500       
    196600   277.62108      175.79336      259.37447     -2.4657361      196600       
    196700   270.93757      183.02371      264.59267     -16.372286      196700       
    196800   299.17871      187.46974      277.54103     -7.0012952      196800       
    196900   336.51906      184.04772      285.36076     -9.4130498      196900       
    197000   321.55387      173.9657       270.77329      6.648118       197000       
    197100   281.49946      170.87147      255.62021     -1.7769492      197100       
    197200   262.37615      182.42618      261.41762     -3.7627144      197200       
    197300   297.7684       183.07485      272.72155      17.947158      197300       
    197400   350.37114      175.22571      280.70908     -7.1113701      197400       
    197500   312.94845      180.66971      274.88653      0.49299305     197500       
    197600   276.28954      175.0397       258.21993      15.125515      197600       
    197700   262.58425      170.73238      249.78647      7.7478798      197700       
    197800   305.64853      165.03035      257.04945     -6.3961866      197800       
    197900   294.2456       179.53462      268.12074      1.7683011      197900       
    198000   315.72142      180.598        275.64966     -2.2167617      198000       
    198100   304.90854      188.15041      279.94673     -11.726962      198100       
    198200   325.19305      176.06263      273.96584     -2.6923103      198200       
    198300   298.63685      166.06483      255.97299     -7.4972918      198300       
    198400   297.15483      166.30268      255.76465      0.50471699     198400       
    198500   302.16183      179.55574      270.52513      7.9425507      198500       
    198600   327.25403      179.76357      278.28726     -3.5232741      198600       
    198700   318.16681      181.28843      277.07631      7.2408388      198700       
    198800   322.25953      178.14142      275.16145     -17.527578      198800       
    198900   296.94137      178.94866      268.34637      1.3121758      198900       
    199000   283.6804       165.371        250.77634     -17.73697       199000       
    199100   240.92899      175.2593       247.79382      9.5826142      199100       
    199200   319.86012      166.63935      262.93702     -10.583143      199200       
    199300   291.20677      181.18316      268.8544       19.655852      199300       
    199400   280.87018      187.37625      271.93554     -2.3962148      199400       
    199500   301.24226      184.9495       275.64204      10.962619      199500       
    199600   311.44517      187.08443      280.84868     -13.189613      199600       
    199700   326.66825      179.84297      278.1903       9.4347689      199700       
    199800   306.96669      172.71344      265.12939     -15.210421      199800       
    199900   278.58715      176.94448      260.81643      9.6377177      199900       
    200000   295.32638      182.40251      271.314       -17.886398      200000       
Loop time of 11.6437 on 6 procs for 100000 steps with 102 atoms

Performance: 742.035 ns/day, 0.032 hours/ns, 8588.372 timesteps/s
99.7% CPU use with 6 MPI tasks x no OpenMP threads

MPI task timing breakdown:
Section |  min time  |  avg time  |  max time  |%varavg| %total
---------------------------------------------------------------
Pair    | 0.0035162  | 0.5842     | 2.5712     | 120.7 |  5.02
Bond    | 0.0049394  | 0.66647    | 2.2551     | 105.9 |  5.72
Kspace  | 5.7627     | 9.0005     | 10.261     |  53.2 | 77.30
Neigh   | 0.10931    | 0.11128    | 0.11457    |   0.7 |  0.96
Comm    | 0.031257   | 0.65797    | 1.2049     |  58.9 |  5.65
Output  | 0.0090721  | 0.010257   | 0.015607   |   2.4 |  0.09
Modify  | 0.16117    | 0.50442    | 1.1177     |  61.0 |  4.33
Other   |            | 0.1085     |            |       |  0.93

Nlocal:             17 ave          63 max           0 min
Histogram: 3 1 0 1 0 0 0 0 0 1
Nghost:            117 ave         193 max           0 min
Histogram: 2 0 0 0 0 0 0 1 0 3
Neighs:        738.667 ave        3782 max           0 min
Histogram: 4 1 0 0 0 0 0 0 0 1

Total # of neighbors = 4432
Ave neighs/atom = 43.45098
Ave special neighs/atom = 12.019608
Neighbor list builds = 1865
Dangerous builds = 0
write_restart  system.${epoch}.restart
write_restart  system.2.restart
System init for write_restart ...
PPPM initialization ...
  using 12-bit tables for long-range coulomb (../kspace.cpp:340)
  G vector (1/distance) = 0.092609207
  grid = 8 8 8
  stencil order = 5
  estimated absolute RMS force accuracy = 0.03309473
  estimated relative force accuracy = 9.9663797e-05
  using double precision KISS FFT
  3d grid and FFT values/proc = 936 128
  generated 2346 of 2346 mixed pair_coeff terms from geometric mixing rule
if          "${epoch} >= 50" then "jump SELF break"
next        epoch
jump        SELF loop
print       "EPOCH = ${epoch}"
EPOCH = 3
run         100000  # 100 ps each time
PPPM initialization ...
  using 12-bit tables for long-range coulomb (../kspace.cpp:340)
  G vector (1/distance) = 0.092609207
  grid = 8 8 8
  stencil order = 5
  estimated absolute RMS force accuracy = 0.03309473
  estimated relative force accuracy = 9.9663797e-05
  using double precision KISS FFT
  3d grid and FFT values/proc = 936 128
  generated 2346 of 2346 mixed pair_coeff terms from geometric mixing rule
Per MPI rank memory allocation (min/avg/max) = 13.7 | 14.67 | 15.48 Mbytes
   Step          Temp          PotEng         TotEng         Press           Time     
    200000   295.32638      182.40251      271.314       -17.886398      200000       
    200100   311.18218      189.74984      283.43491      19.87255       200100       
    200200   337.33066      180.92144      282.47882     -13.618404      200200       
    200300   287.72606      187.75665      274.37998      14.711916      200300       
    200400   310.58571      173.93041      267.43591      9.1246733      200400       
    200500   282.98685      177.2284       262.42493      10.937064      200500       
    200600   271.84482      166.15137      247.99346     -10.292524      200600       
    200700   250.92         173.46047      249.00291      4.2708278      200700       
    200800   282.58911      180.63602      265.71281      0.81298776     200800       
    200900   329.6174       172.14906      271.38427     -2.3613635      200900       
    201000   292.33806      186.23946      274.25129      0.018186575    201000       
    201100   333.87707      176.28784      276.80547      2.7401339      201100       
    201200   273.9022       185.69973      268.16123      3.9477166      201200       
    201300   250.96386      182.11057      257.6662      -6.2644974      201300       
    201400   270.21148      172.91172      254.26208     -2.6304477      201400       
    201500   284.66323      188.083        273.78423     -9.6170404      201500       
    201600   300.58161      191.01405      281.50769     -0.48762362     201600       
    201700   312.34374      181.70738      275.74215      3.7684366      201700       
    201800   285.42271      181.60523      267.53511     -11.721079      201800       
    201900   275.80232      179.36546      262.39901     -9.8506928      201900       
    202000   287.76674      172.76428      259.39985     -4.8833579      202000       
    202100   309.68072      174.2496       267.48264      5.3312248      202100       
    202200   326.89085      183.89727      282.31163      4.1754323      202200       
    202300   322.76119      186.36806      283.53913     -2.0074464      202300       
    202400   288.73156      176.87846      263.80451     -6.7657695      202400       
    202500   271.60595      175.3855       257.15568     -3.8040575      202500       
    202600   293.63685      172.08441      260.48725     -6.6938634      202600       
    202700   276.21979      184.81621      267.97545      2.1463545      202700       
    202800   310.94291      184.29712      277.91016     -11.754112      202800       
    202900   287.07895      190.92061      277.34912      6.6001512      202900       
    203000   302.47327      174.22185      265.28501      5.424172       203000       
    203100   285.1058       166.3099       252.14437      13.41953       203100       
    203200   284.88757      174.64947      260.41824      0.83825021     203200       
    203300   299.07265      184.40154      274.44089     -7.068223       203300       
    203400   322.57501      180.94314      278.05816     -0.7671843      203400       
    203500   313.01336      180.4216       274.65797      1.8613131      203500       
    203600   276.96434      184.57788      267.96126     -7.2623392      203600       
    203700   267.64226      170.89327      251.47013      10.279712      203700       
    203800   243.75939      179.74974      253.13638     -2.9384049      203800       
    203900   279.26754      180.5258       264.6026       5.1062928      203900       
    204000   302.20013      178.72255      269.70347      5.0972833      204000       
    204100   327.84813      173.95863      272.66119     -4.030024       204100       
    204200   300.79866      177.66462      268.22361      6.1909846      204200       
    204300   274.20431      177.65815      260.2106      -6.8845788      204300       
    204400   269.92592      175.78744      257.05183      1.3411934      204400       
    204500   306.9995       176.05729      268.48312     -5.5492184      204500       
    204600   308.63656      190.45897      283.37765      8.0816742      204600       
    204700   304.28003      188.65907      280.26617      3.8128596      204700       
    204800   281.27768      185.77477      270.45674     -12.712698      204800       
    204900   296.57775      176.11142      265.39965     -7.8443569      204900       
    205000   285.82397      180.04145      266.09213      3.1234341      205000       
    205100   295.6343       182.57269      271.57689     -10.66564       205100       
    205200   302.22422      187.67986      278.66803     -0.9789698      205200       
    205300   300.49791      193.0695       283.53795     -14.929189      205300       
    205400   315.03805      183.05233      277.89826      4.3455704      205400       
    205500   293.79646      172.83003      261.28092     -5.0798302      205500       
    205600   247.95925      183.00541      257.65647     -10.274517      205600       
    205700   305.28838      177.33126      269.24193      9.3344091      205700       
    205800   315.48726      188.16033      283.14149      0.80223983     205800       
    205900   339.43669      178.18123      280.37266      4.8189589      205900       
    206000   316.22041      176.35033      271.55223      8.7505737      206000       
    206100   304.22921      173.9804       265.5722      -6.2253543      206100       
    206200   297.12026      172.5839       262.03547     -2.9184782      206200       
    206300   288.0081       178.47346      265.18171      5.3206014      206300       
    206400   305.86097      186.60927      278.69233      9.8452256      206400       
    206500   300.38791      193.45687      283.89219     -1.9179255      206500       
    206600   291.1825       189.11882      276.78276      18.176458      206600       
    206700   295.93148      173.09318      262.18685      13.56655       206700       
    206800   252.63754      183.25907      259.31859      2.6703237      206800       
    206900   317.16259      177.35467      272.84021      0.12654644     206900       
    207000   350.44436      186.55416      292.05957      3.6725044      207000       
    207100   338.96329      179.70819      281.7571      -5.5575161      207100       
    207200   294.02922      179.77769      268.29866     -8.8674305      207200       
    207300   293.40014      173.58251      261.91409     -3.3742759      207300       
    207400   261.75645      187.05376      265.85863      5.9746708      207400       
    207500   342.15747      184.08605      287.0966       1.5633739      207500       
    207600   325.22017      191.17059      289.08196      10.348008      207600       
    207700   286.52422      192.45092      278.71242     -8.7780631      207700       
    207800   293.31133      184.08004      272.38488      1.0537086      207800       
    207900   271.99637      186.16689      268.05461     -4.7280359      207900       
    208000   319.55883      172.29352      268.50048      3.6492581      208000       
    208100   317.4576       180.90162      276.47598     -8.2879008      208100       
    208200   328.27328      189.19047      288.02101      0.14290333     208200       
    208300   302.03944      192.39316      283.3257      -0.88323        208300       
    208400   310.43319      173.94401      267.40359     -1.0517988      208400       
    208500   266.58879      181.78819      262.0479      -6.0386783      208500       
    208600   299.99488      174.29086      264.60786      9.9362242      208600       
    208700   333.79837      170.91188      271.40582     -10.032751      208700       
    208800   358.61062      189.84242      297.80638      6.7068315      208800       
    208900   370.56757      190.31639      301.88014      1.3834945      208900       
    209000   300.49914      191.77124      282.24005      15.407106      209000       
    209100   322.0377       172.82557      269.77882      3.3178884      209100       
    209200   298.53454      173.77428      263.65163      5.281014       209200       
    209300   251.27138      192.28545      267.93367     -1.5036605      209300       
    209400   324.74598      185.23163      283.00024     -5.2630802      209400       
    209500   360.67609      180.57316      289.15896      10.954644      209500       
    209600   307.51778      182.37486      274.95673      2.8486357      209600       
    209700   282.97649      183.6164       268.80981      11.145606      209700       
    209800   282.50094      184.1663       269.21654     -2.5170721      209800       
    209900   294.65804      189.27581      277.9861      -6.2566239      209900       
    210000   326.70239      184.4255       282.78311     -13.565202      210000       
    210100   307.0957       198.954        291.40879     -0.085180186    210100       
    210200   304.3342       188.39688      280.02028     -7.5508236      210200       
    210300   305.7191       169.77273      261.81308      1.7659718      210300       
    210400   271.38255      181.69533      263.39826     -3.8699351      210400       
    210500   306.70824      178.74723      271.08536      9.1568094      210500       
    210600   297.36854      198.09257      287.61888      5.0809741      210600       
    210700   342.78542      195.38694      298.58654     -7.0315108      210700       
    210800   328.12156      181.48639      280.27126     -5.3852602      210800       
    210900   247.1303       191.11659      265.51808     -7.4829128      210900       
    211000   290.93977      178.09287      265.68373     -7.9823042      211000       
    211100   299.51528      183.57926      273.75187     -1.4051658      211100       
    211200   286.28429      198.94117      285.13044     -8.9748526      211200       
    211300   309.98166      189.50106      282.82471     -5.9885887      211300       
    211400   289.84888      181.43266      268.69509      3.7014017      211400       
    211500   258.03611      181.36336      259.04818      15.873675      211500       
    211600   281.77897      180.46663      265.29952      9.7481367      211600       
    211700   309.30121      181.40741      274.52619     -8.5066365      211700       
    211800   306.64336      187.60143      279.92004     -1.5822783      211800       
    211900   325.56507      179.13649      277.1517      -12.498228      211900       
    212000   279.61022      187.15724      271.3372      -3.0498859      212000       
    212100   306.64151      177.31151      269.62956      0.69542123     212100       
    212200   283.87863      184.70521      270.17022      15.18619       212200       
    212300   313.23091      188.03772      282.33959      6.0318557      212300       
    212400   298.43362      199.88785      289.73482      13.30488       212400       
    212500   302.27119      186.60842      277.61073     -4.0176595      212500       
    212600   325.69384      169.60829      267.66226     -1.9833734      212600       
    212700   293.08903      177.91814      266.15606     -4.4448427      212700       
    212800   275.96688      189.37152      272.45461     -9.2904476      212800       
    212900   297.75444      199.2632       288.90569     -10.936028      212900       
    213000   311.61742      201.25201      295.06811      5.9062214      213000       
    213100   319.81977      182.40178      278.6873       6.3079923      213100       
    213200   293.97738      183.76852      272.27389      5.8379776      213200       
    213300   284.80115      184.21109      269.95384      7.363588       213300       
    213400   261.09505      192.2833       270.88905      8.0219664      213400       
    213500   307.61794      183.93587      276.54788      4.8725511      213500       
    213600   351.84277      183.19051      289.11693      2.232329       213600       
    213700   311.18081      190.99532      284.67998     -7.9693581      213700       
    213800   265.05628      185.37133      265.16966      2.9203679      213800       
    213900   295.46856      175.30827      264.26257     -3.9175089      213900       
    214000   287.46244      182.98059      269.52455      5.3929691      214000       
    214100   299.97896      192.82119      283.1334       7.2850461      214100       
    214200   361.31952      188.02653      296.80604      5.0746237      214200       
    214300   364.05493      207.90814      317.51118     -21.915734      214300       
    214400   338.92829      198.27196      300.31033      5.4502976      214400       
    214500   306.74232      188.57812      280.92652     -5.4040716      214500       
    214600   316.52614      172.90456      268.19849      17.882878      214600       
    214700   306.7912       168.65378      261.0169      -12.120446      214700       
    214800   273.57783      179.99392      262.35776     -7.6961141      214800       
    214900   313.49764      186.27486      280.65703      7.562214       214900       
    215000   309.54645      191.33507      284.52768     -1.7013584      215000       
    215100   327.5791       180.90273      279.52429      3.1590585      215100       
    215200   330.94052      175.38053      275.01408      2.235455       215200       
    215300   276.13093      185.63565      268.76813     -14.337055      215300       
    215400   285.34482      185.67741      271.58384     -14.137421      215400       
    215500   313.59317      177.94847      272.3594       7.162349       215500       
    215600   316.32599      182.52253      277.7562      -8.9147646      215600       
    215700   325.47154      184.58585      282.57291      8.9336802      215700       
    215800   289.35748      185.92576      273.04025     -4.1146032      215800       
    215900   274.16394      180.72588      263.26617      5.9555598      215900       
    216000   268.60013      175.89902      256.76426      19.067885      216000       
    216100   276.9733       191.55836      274.94445     -9.1728729      216100       
    216200   346.19526      182.64715      286.87332      0.90829105     216200       
    216300   315.89144      185.6937       280.79655     -11.05984       216300       
    216400   323.15947      171.60489      268.89586      10.718337      216400       
    216500   284.65231      175.42787      261.12581     -6.2156614      216500       
    216600   283.70233      182.23584      267.64777     -6.8012787      216600       
    216700   309.85558      197.10402      290.3897       6.8015291      216700       
    216800   313.61855      195.3588       289.77737      0.75254098     216800       
    216900   289.54321      190.48003      277.65044     -5.2156508      216900       
    217000   296.75083      176.90239      266.24273     -4.4983783      217000       
    217100   258.28802      187.8353       265.59596     -7.286855       217100       
    217200   302.36334      181.80698      272.83704      1.1267081      217200       
    217300   321.68464      197.12007      293.96703     -18.725605      217300       
    217400   368.69137      180.59485      291.59374      9.461575       217400       
    217500   300.74671      186.56812      277.11147      3.4350836      217500       
    217600   257.68569      195.74047      273.31979     -10.754908      217600       
    217700   269.06536      188.02727      269.03258      9.8788711      217700       
    217800   302.41787      181.694        272.74048      7.9197353      217800       
    217900   323.44251      189.01603      286.39222     -6.8052545      217900       
    218000   349.41734      186.41329      291.60951      7.4764737      218000       
    218100   293.77901      188.76309      277.20874     -17.019144      218100       
    218200   291.16475      178.90191      266.5605       6.3120957      218200       
    218300   323.1749       170.59934      267.89496     -6.0602252      218300       
    218400   310.25343      180.93248      274.33794      4.3628882      218400       
    218500   334.92052      185.35638      286.18816     -2.2609941      218500       
    218600   308.10525      210.74103      303.49976     -5.4341969      218600       
    218700   335.20739      190.26066      291.17881      8.7470447      218700       
    218800   298.34783      182.56255      272.38369      5.0027286      218800       
    218900   296.64416      180.09995      269.40818     -21.58186       218900       
    219000   286.23109      181.69711      267.87036     -6.244005       219000       
    219100   324.36143      170.29806      267.9509       0.94166899     219100       
    219200   316.7948       185.30749      280.68231      7.0328824      219200       
    219300   281.05351      202.72417      287.33866     -10.83401       219300       
    219400   328.33862      179.82946      278.67968      11.188875      219400       
    219500   273.53661      180.40174      262.75316      6.6858359      219500       
    219600   293.0165       176.52401      264.74009      8.9822482      219600       
    219700   313.67865      177.89423      272.33089     -13.425653      219700       
    219800   369.84322      167.48854      278.83421      8.3321317      219800       
    219900   303.62869      187.38599      278.79699     -1.471859       219900       
    220000   268.18654      192.78683      273.52756      0.55146297     220000       
    220100   283.32666      183.42311      268.72195     -5.952576       220100       
    220200   270.42513      188.21621      269.63089     -5.5059805      220200       
    220300   290.02375      183.81562      271.1307       11.137959      220300       
    220400   316.20962      178.8451       274.04374      1.0873652      220400       
    220500   292.64337      193.41707      281.52081     -12.598804      220500       
    220600   313.5745       184.08022      278.48553      0.32104901     220600       
    220700   280.0008       180.74847      265.04602      2.090192       220700       
    220800   298.2613       167.65081      257.4459       0.18127008     220800       
    220900   308.09076      171.14623      263.9006      -6.7302657      220900       
    221000   312.25665      191.82         285.82856      2.8601859      221000       
    221100   308.46122      192.94006      285.80596      0.94446092     221100       
    221200   298.17171      185.58343      275.35155     -1.1895118      221200       
    221300   302.93231      175.66923      266.87058     -4.0404659      221300       
    221400   294.0149       173.05832      261.57498     -0.63927104     221400       
    221500   278.0994       181.31986      265.04497     -3.1739391      221500       
    221600   316.43384      185.27428      280.54043      6.4488762      221600       
    221700   294.35504      198.69386      287.31292     -9.9270951      221700       
    221800   309.89123      184.6006       277.89701      8.9759057      221800       
    221900   308.36859      169.14156      261.97956     -0.8274338      221900       
    222000   297.03904      171.14747      260.57458     -2.3283541      222000       
    222100   311.93675      174.75946      268.67171     -3.3214622      222100       
    222200   313.27836      178.99632      273.31247     -3.3947583      222200       
    222300   291.04013      186.34299      273.96406     -2.4749802      222300       
    222400   292.46061      185.99512      274.04384      8.4514914      222400       
    222500   306.02479      174.10804      266.24042     -0.59249375     222500       
    222600   286.81942      175.31623      261.6666      -0.049143391    222600       
    222700   322.40014      175.90633      272.9687      -3.2785816      222700       
    222800   299.46961      194.10611      284.26497      8.03548        222800       
    222900   349.35746      181.12754      286.30573      4.3723077      222900       
    223000   278.85772      185.00202      268.95544     -5.3138565      223000       
    223100   306.61016      165.17628      257.4849       6.3133466      223100       
    223200   277.67161      180.85189      264.44821      7.0100168      223200       
    223300   293.25979      186.31669      274.60601     -8.4809447      223300       
    223400   305.96905      186.72341      278.83901     -9.1253868      223400       
    223500   318.71455      181.37525      277.32803      8.6519159      223500       
    223600   321.7705       176.49967      273.37248     -8.4573465      223600       
    223700   307.79424      175.85948      268.52458      12.989486      223700       
    223800   316.93882      172.44939      267.86757     -0.43166783     223800       
    223900   277.4964       183.68409      267.22766      5.5156057      223900       
    224000   280.86524      182.21422      266.77202     -7.9238033      224000       
    224100   314.90808      176.95846      271.76526      1.6581815      224100       
    224200   323.23874      183.84305      281.1579      -2.7131978      224200       
    224300   322.15769      185.13169      282.12107     -6.8151645      224300       
    224400   319.08834      175.82769      271.893       -5.8433766      224400       
    224500   306.0489       165.45075      257.59039      6.8865432      224500       
    224600   259.27542      183.16616      261.22409     -12.349176      224600       
    224700   312.08059      179.13684      273.09239     -9.7378779      224700       
    224800   313.14141      184.85978      279.1347       1.6004464      224800       
    224900   305.98809      183.38691      275.50824     -0.41874891     224900       
    225000   329.48859      169.15338      268.34981      2.155103       225000       
    225100   299.78048      170.75296      261.00541     -2.4086722      225100       
    225200   271.34124      178.62385      260.31434     -4.626436       225200       
    225300   290.48339      182.56091      270.01436     -9.9979299      225300       
    225400   339.97405      179.58136      281.93457     -7.5416859      225400       
    225500   305.09282      190.85377      282.70557      6.5053606      225500       
    225600   284.55516      185.36319      271.03188      10.542202      225600       
    225700   243.88994      188.54868      261.97463     -18.224108      225700       
    225800   310.68766      170.65565      264.19184      3.5852078      225800       
    225900   339.74551      167.55295      269.83735     -6.5889402      225900       
    226000   314.16007      176.20791      270.78951     -7.2003694      226000       
    226100   293.44616      185.13523      273.48066     -5.8811409      226100       
    226200   297.7651       187.82338      277.46908      2.5717377      226200       
    226300   323.97834      190.08057      287.61808     -6.582801       226300       
    226400   305.90716      194.6131       286.71007      5.0562083      226400       
    226500   289.41434      181.12419      268.25579      3.1023706      226500       
    226600   278.91055      180.88562      264.85494     -2.1437065      226600       
    226700   282.12987      181.3189       266.25743      3.765618       226700       
    226800   337.07183      170.52828      272.00774      4.9965613      226800       
    226900   348.77492      190.13571      295.13852     -13.961611      226900       
    227000   331.10638      196.14373      295.82721     -4.9178533      227000       
    227100   293.46246      191.82881      280.17915     -3.4297243      227100       
    227200   292.74318      186.3829       274.51669      4.2655335      227200       
    227300   281.33343      188.18997      272.88872     -1.3577253      227300       
    227400   304.5599       180.73632      272.42768     -0.13913895     227400       
    227500   313.39013      177.42837      271.77817      13.957162      227500       
    227600   309.20072      184.71342      277.80195      1.3033663      227600       
    227700   295.69551      190.48715      279.50977     -1.0274723      227700       
    227800   319.57725      172.3029       268.5154      -11.964879      227800       
    227900   275.96687      174.37535      257.45844      8.7292317      227900       
    228000   258.32436      180.74866      258.52026     -10.898527      228000       
    228100   331.54233      177.55352      277.36825      0.84224365     228100       
    228200   330.0149       179.87023      279.22511     -19.976376      228200       
    228300   338.43272      173.02287      274.91204      16.66871       228300       
    228400   296.58505      178.77487      268.0653       2.1515962      228400       
    228500   275.25069      175.14526      258.01273     -4.7207131      228500       
    228600   294.07972      167.14039      255.67656      4.9227816      228600       
    228700   287.68676      184.69603      271.30753     -0.20962451     228700       
    228800   320.87352      186.52278      283.12554     -2.1721452      228800       
    228900   320.42332      185.746        282.21322     -18.036578      228900       
    229000   268.19976      184.95438      265.69908     -3.7912495      229000       
    229100   263.15543      180.70656      259.93261      3.7671147      229100       
    229200   314.59442      170.96225      265.67462      4.2589282      229200       
    229300   270.37281      188.90664      270.30557      6.7539803      229300       
    229400   282.17585      189.50797      274.46035      7.4322091      229400       
    229500   339.32685      172.36833      274.52669      4.8061736      229500       
    229600   352.54257      172.1025       278.2396       0.61434826     229600       
    229700   309.69767      178.14594      271.38408     -6.5441242      229700       
    229800   299.95716      168.06472      258.37037     -6.2397814      229800       
    229900   282.13586      173.31002      258.25035      2.2722854      229900       
    230000   311.28135      181.09161      274.80654      12.730548      230000       
    230100   304.34757      191.50339      283.13082      7.2449057      230100       
    230200   271.18973      196.47928      278.12416      13.027047      230200       
    230300   281.08021      186.83552      271.45804      2.8067183      230300       
    230400   298.68834      169.71103      259.63468     -0.12825428     230400       
    230500   280.40574      166.62169      251.04115     -9.0256393      230500       
    230600   242.13531      173.60005      246.49774     -2.3669701      230600       
    230700   278.38271      176.45751      260.26791     -15.465589      230700       
    230800   323.11913      175.45914      272.73797      3.6521211      230800       
    230900   287.78599      190.25585      276.89722      5.2014648      230900       
    231000   325.77531      182.94274      281.02124      15.128685      231000       
    231100   289.46643      183.78423      270.93152     -3.2236578      231100       
    231200   282.45966      171.28181      256.31963     -0.026827452    231200       
    231300   295.14302      171.00564      259.86193     -6.9935672      231300       
    231400   312.51013      183.87496      277.95983     -7.546716       231400       
    231500   318.7345       184.77876      280.73755     -2.5665871      231500       
    231600   286.07921      186.53666      272.66419      0.48861253     231600       
    231700   276.58825      180.29233      263.56249     -14.511221      231700       
    231800   286.8118       173.66974      260.01782      6.1108361      231800       
    231900   303.42746      182.02838      273.3788       5.3629049      231900       
    232000   321.51585      191.43638      288.23252     -8.0418259      232000       
    232100   329.60864      184.65899      283.89156      7.8592479      232100       
    232200   275.14586      186.13959      268.97551     -1.6419092      232200       
    232300   268.69627      184.42592      265.3201      -2.6221599      232300       
    232400   292.42737      182.07726      270.11598      7.3132174      232400       
    232500   292.03387      185.26591      273.18616     -1.1810824      232500       
    232600   331.96362      190.1016       290.04317      6.0761295      232600       
    232700   350.52605      191.74321      297.27322     -3.265914       232700       
    232800   277.79722      195.2976       278.93174     -8.0198966      232800       
    232900   291.73615      184.30391      272.13452      6.3485226      232900       
    233000   257.48975      195.12422      272.64455     -6.8025101      233000       
    233100   295.54977      185.4298       274.40855     -6.9771948      233100       
    233200   330.94393      186.91557      286.55015      14.258111      233200       
    233300   334.40982      195.35899      296.03702     -16.970231      233300       
    233400   301.27288      184.55075      275.25251     -4.1489295      233400       
    233500   299.16683      175.79391      265.86162     -4.8347399      233500       
    233600   331.42426      163.53533      263.31452      2.8809164      233600       
    233700   324.55615      171.96256      269.67402      3.7119301      233700       
    233800   297.22581      198.40008      287.88342      1.3043669      233800       
    233900   358.36052      186.98292      294.87159      1.8147127      233900       
    234000   332.40231      186.35741      286.43105     -13.131214      234000       
    234100   291.15323      188.75204      276.40716     -4.4483576      234100       
    234200   306.79296      179.72872      272.09236     -6.5727574      234200       
    234300   275.95022      183.84446      266.92254     -8.0986706      234300       
    234400   293.8992       175.2069       263.68873      7.1118838      234400       
    234500   262.86225      185.93689      265.07467      10.776157      234500       
    234600   338.86145      174.07985      276.0981       4.8465227      234600       
    234700   315.88521      189.76734      284.86831      7.9979952      234700       
    234800   294.79161      192.92888      281.67938     -8.7517659      234800       
    234900   257.72374      183.20405      260.79483     -8.0900779      234900       
    235000   293.24849      170.9017       259.18762     -3.1924886      235000       
    235100   276.71059      183.48453      266.79152     -7.0676111      235100       
    235200   294.65118      186.51235      275.22057     -4.5141468      235200       
    235300   308.33858      184.55384      277.38281     -5.4835595      235300       
    235400   287.75379      186.88859      273.52027     -9.1463282      235400       
    235500   323.97589      172.64686      270.18363     -0.85878664     235500       
    235600   308.08888      174.44842      267.20222      8.1479742      235600       
    235700   289.27987      184.21764      271.30877     -9.0407625      235700       
    235800   301.94686      188.10747      279.01214      9.9588147      235800       
    235900   330.09249      186.93613      286.31437     -12.277853      235900       
    236000   299.96238      189.22894      279.53615     -4.4357087      236000       
    236100   283.19878      177.03464      262.29498     -7.6241834      236100       
    236200   302.88051      169.66702      260.85278      8.5063591      236200       
    236300   301.71187      175.81952      266.65345      0.27971256     236300       
    236400   320.42254      178.91989      275.38688      7.8856659      236400       
    236500   318.02809      181.16321      276.90933      9.998092       236500       
    236600   317.23162      178.53055      274.03688     -0.31271272     236600       
    236700   288.29557      187.20639      274.00118     -12.105074      236700       
    236800   287.23197      185.79192      272.26649     -5.7638231      236800       
    236900   303.05397      184.27091      275.50888     -2.5945867      236900       
    237000   268.91481      202.15152      283.1115       2.9353341      237000       
    237100   340.92387      176.34197      278.98113      1.3160086      237100       
    237200   305.08965      173.67944      265.53028      7.3515522      237200       
    237300   286.88891      172.30405      258.67534     -0.88075595     237300       
    237400   309.17035      168.03466      261.11405     -2.3809818      237400       
    237500   280.39215      190.31144      274.72681     -2.2795218      237500       
    237600   366.94864      176.99109      287.46531      5.4056618      237600       
    237700   347.26706      189.17556      293.72441     -3.5103346      237700       
    237800   323.33602      184.76066      282.10479      5.2065375      237800       
    237900   315.9489       171.26958      266.38973      11.935         237900       
    238000   289.05764      173.22204      260.24625      9.7924807      238000       
    238100   296.29392      175.41977      264.62256     -2.4572618      238100       
    238200   344.25761      173.06442      276.70724     -5.4876518      238200       
    238300   339.94532      181.08931      283.43387      2.2526395      238300       
    238400   316.6478       179.63631      274.96687      6.4055023      238400       
    238500   276.98841      174.50263      257.89326     -13.470743      238500       
    238600   309.31242      168.31774      261.4399      -14.346209      238600       
    238700   288.71932      185.93971      272.86207      3.4432511      238700       
    238800   312.22271      186.17439      280.17273     -8.2316989      238800       
    238900   296.74718      190.88745      280.2267       15.663181      238900       
    239000   295.40214      182.0259       270.9602      -7.0614152      239000       
    239100   277.10472      175.53707      258.96272     -10.44339       239100       
    239200   246.96911      161.83533      236.1883      -1.0342199      239200       
    239300   264.84685      162.6047       242.33998     -11.260062      239300       
    239400   278.77299      172.17885      256.10675      5.6168022      239400       
    239500   292.36922      183.68638      271.70759     -3.8240131      239500       
    239600   336.15767      178.71018      279.91442     -2.9887244      239600       
    239700   333.28442      181.17577      281.51498     -9.9953521      239700       
    239800   271.97297      184.84094      266.72162     -5.6683874      239800       
    239900   277.94678      173.03921      256.71837     -10.957774      239900       
    240000   266.75484      179.5251       259.8348      -8.4041019      240000       
    240100   278.47887      188.01125      271.85061     -6.4780258      240100       
    240200   267.62189      192.23848      272.80921     -8.3584667      240200       
    240300   307.43924      178.73159      271.2898       0.87096331     240300       
    240400   282.96766      188.16436      273.35512     -0.5609114      240400       
    240500   306.91842      177.41294      269.81435      3.7403386      240500       
    240600   296.47004      182.60129      271.8571      -6.9579743      240600       
    240700   314.11047      182.95189      277.51856      0.64109004     240700       
    240800   315.51217      187.94675      282.93542      1.3608289      240800       
    240900   348.7958       178.79364      283.80273     -2.2292902      240900       
    241000   288.4582       178.98942      265.83317      4.9493793      241000       
    241100   252.72119      182.40243      258.48713     -5.2476517      241100       
    241200   311.79554      170.48892      264.35865      10.052109      241200       
    241300   307.75016      184.19722      276.84904     -4.0743915      241300       
    241400   325.39087      194.35584      292.3186      -10.025994      241400       
    241500   310.20441      196.61978      290.01048      11.071544      241500       
    241600   297.40506      170.33555      259.87286     -3.05258        241600       
    241700   279.40494      176.7645       260.88265      0.23317505     241700       
    241800   315.01729      177.6619       272.50158      5.5198425      241800       
    241900   330.27669      184.6147       284.0484      -1.15363        241900       
    242000   296.67698      191.24332      280.56143      9.7918859      242000       
    242100   320.09824      171.45374      267.8231      -1.3555549      242100       
    242200   262.71593      177.48308      256.57682     -2.0829401      242200       
    242300   260.54595      183.99029      262.43072      0.74933074     242300       
    242400   268.34863      188.7608       269.55033     -13.193614      242400       
    242500   286.45111      187.31293      273.55242     -4.5679423      242500       
    242600   324.82428      180.03289      277.82507      4.2710346      242600       
    242700   322.66639      182.10308      279.24561     -9.3759608      242700       
    242800   316.6242       178.55606      273.87951      10.578406      242800       
    242900   300.73415      173.63657      264.17614     -20.142939      242900       
    243000   265.75515      179.04783      259.05656     -2.7089184      243000       
    243100   293.33093      176.13084      264.44158     -0.96615037     243100       
    243200   310.53416      189.57432      283.0643      -0.95597786     243200       
    243300   315.07087      190.2779       285.1337       5.2087375      243300       
    243400   283.1558       191.02717      276.27457     -6.3522266      243400       
    243500   264.18306      184.75493      264.29036      10.463274      243500       
    243600   275.05022      178.20734      261.01445      3.3272243      243600       
    243700   318.44047      178.23536      274.10562     -9.8260191      243700       
    243800   350.68866      182.25744      287.83641      8.7913595      243800       
    243900   286.45772      195.78075      282.02223      4.8458669      243900       
    244000   287.31706      181.44642      267.94662      7.0810573      244000       
    244100   259.73157      182.37405      260.56931     -5.0705698      244100       
    244200   252.89891      188.96212      265.10032      5.9117015      244200       
    244300   328.48127      183.38681      282.27998      8.9352352      244300       
    244400   321.73872      187.5761       284.43934      0.10023039     244400       
    244500   281.25572      194.97318      279.64854     -4.3872498      244500       
    244600   297.95791      182.13398      271.83773      11.448088      244600       
    244700   286.52976      178.09778      264.36095     -5.6554426      244700       
    244800   305.52915      171.80557      263.78873     -7.4717233      244800       
    244900   324.38043      174.74378      272.40234     -1.8165454      244900       
    245000   317.46944      186.68528      282.2632      -3.6144093      245000       
    245100   286.27301      195.2519       281.43777     -7.9188862      245100       
    245200   313.18548      174.34373      268.63191      4.5331469      245200       
    245300   272.92324      175.99205      258.15882     -4.5415474      245300       
    245400   273.85333      179.61519      262.06197      11.834456      245400       
    245500   320.93293      188.65223      285.27289     -7.1526861      245500       
    245600   303.95142      188.88588      280.39404      6.7182619      245600       
    245700   314.37781      174.99277      269.63992     -16.408464      245700       
    245800   275.78823      181.17425      264.20356     -16.610573      245800       
    245900   314.58264      171.55828      266.2671      -0.75759767     245900       
    246000   358.56034      176.73355      284.68238     -3.7201138      246000       
    246100   308.61744      194.02485      286.93777      5.7882296      246100       
    246200   319.45898      179.68045      275.85735     -2.551085       246200       
    246300   283.22725      184.81479      270.0837       7.4218953      246300       
    246400   262.19685      189.78092      268.71838     -7.6123178      246400       
    246500   303.18959      182.99217      274.27098      8.0134593      246500       
    246600   316.85562      197.03712      292.43025     -7.7514682      246600       
    246700   330.48854      200.96063      300.45811     -0.74918894     246700       
    246800   335.51463      186.57321      287.58385      0.81958501     246800       
    246900   307.03206      184.94269      277.37832      0.24730305     246900       
    247000   328.12867      172.18012      270.96714     -1.2085289      247000       
    247100   289.15159      175.00398      262.05648     -2.5991788      247100       
    247200   266.45596      176.75673      256.97644      12.840455      247200       
    247300   295.13458      184.97665      273.8304       0.98287939     247300       
    247400   310.60442      192.08736      285.59849      0.972023       247400       
    247500   337.6017       177.28352      278.9225      -5.4818083      247500       
    247600   291.58671      179.72897      267.51459     -0.58179873     247600       
    247700   318.48272      168.19074      264.07372     -5.0567101      247700       
    247800   294.23131      178.3918       266.97361     -13.390956      247800       
    247900   324.78953      175.45303      273.23476      8.2650762      247900       
    248000   290.74492      186.5074       274.03959     -1.6740326      248000       
    248100   302.51802      185.29625      276.37287     -2.4528596      248100       
    248200   303.50068      183.88907      275.26154      13.072191      248200       
    248300   275.84715      185.20184      268.24888      2.1143275      248300       
    248400   263.22285      176.98557      256.23192     -13.251045      248400       
    248500   249.72978      182.68403      257.86813     -11.214856      248500       
    248600   295.19648      188.83471      277.7071      -15.677347      248600       
    248700   348.42016      174.96466      279.86067      8.7762972      248700       
    248800   333.46688      172.30119      272.69533      10.650292      248800       
    248900   296.50162      174.40656      263.67187     -3.4468673      248900       
    249000   287.7291       172.85906      259.48331      4.1788676      249000       
    249100   276.53319      181.67499      264.92857     -3.2389495      249100       
    249200   339.82449      179.01985      281.32802      14.531708      249200       
    249300   318.73246      189.99325      285.95142     -3.1845949      249300       
    249400   312.61116      185.17924      279.29453      6.8629138      249400       
    249500   272.75271      179.96322      262.07865      8.9149569      249500       
    249600   297.79546      172.72553      262.38037     -7.0077165      249600       
    249700   299.97309      177.81952      268.12996     -0.35336869     249700       
    249800   296.19455      185.81399      274.98686     -4.951162       249800       
    249900   331.0025       177.63383      277.28604      1.8484017      249900       
    250000   310.56989      181.6258       275.12653     -10.319541      250000       
    250100   318.0187       179.94897      275.69226      6.4807327      250100       
    250200   294.71437      186.89614      275.62339     -3.937314       250200       
    250300   280.95849      186.45967      271.04554      2.8106077      250300       
    250400   293.99532      173.45208      261.96285     -11.113555      250400       
    250500   273.33157      172.59156      254.88126     -1.4876908      250500       
    250600   287.85118      177.92688      264.58788     -2.6884934      250600       
    250700   311.32762      185.83684      279.5657      -2.0881717      250700       
    250800   319.58622      184.13967      280.35488      4.2441617      250800       
    250900   299.83499      182.71913      272.988        9.5473096      250900       
    251000   260.75979      186.23329      264.73811     -1.8471653      251000       
    251100   240.30812      177.35479      249.70239     -10.194642      251100       
    251200   253.51692      169.16634      245.4906       1.3695451      251200       
    251300   247.59376      187.99206      262.53309     -5.7083683      251300       
    251400   314.98622      176.92401      271.75433      2.2712853      251400       
    251500   288.10715      188.77414      275.51221     -14.656882      251500       
    251600   314.42545      180.52974      275.19124      11.293949      251600       
    251700   279.05918      186.39162      270.40568     -1.637292       251700       
    251800   280.13357      174.23335      258.57087      9.8098591      251800       
    251900   308.09348      162.2944       255.04958     -0.85826284     251900       
    252000   295.42373      187.06464      276.00544     -7.6462228      252000       
    252100   346.85349      179.49477      283.91911     -6.8559813      252100       
    252200   320.02908      181.64224      277.99077     -0.25528604     252200       
    252300   308.43113      174.74033      267.59717      7.3133132      252300       
    252400   249.65665      181.77841      256.9405      -3.9194639      252400       
    252500   269.08562      174.24797      255.25938      4.1547482      252500       
    252600   299.27901      183.60304      273.70452     -4.1774489      252600       
    252700   329.29882      187.11737      286.25667      7.3215278      252700       
    252800   269.72773      202.92154      284.12626     -12.794592      252800       
    252900   310.32482      179.05241      272.47937      9.0001611      252900       
    253000   296.16454      170.42335      259.58719     -8.1827094      253000       
    253100   275.79696      179.52744      262.55937      6.9602921      253100       
    253200   326.9832       189.37794      287.82009     -10.649422      253200       
    253300   324.30488      191.52357      289.15939      9.1634365      253300       
    253400   311.37522      182.39557      276.13876     -14.003215      253400       
    253500   304.22653      171.96187      263.55286      17.704384      253500       
    253600   290.10421      174.27605      261.61535     -14.082894      253600       
    253700   304.02078      181.14293      272.67198      21.4846        253700       
    253800   332.15932      188.80553      288.80602      4.6118724      253800       
    253900   327.23211      185.18851      283.7056       5.1894306      253900       
    254000   325.66499      175.7752       273.8205       2.1250386      254000       
    254100   275.7582       182.32285      265.34312     -8.7515923      254100       
    254200   278.00198      180.78547      264.48125     -2.3957566      254200       
    254300   315.61207      183.32368      278.34242      1.4603094      254300       
    254400   356.11887      190.13888      297.35268      1.0451927      254400       
    254500   332.60297      187.30586      287.43991      0.11428835     254500       
    254600   307.12449      183.92468      276.38814     -12.41503       254600       
    254700   277.94921      187.4004       271.08029      1.5790509      254700       
    254800   271.5859       188.76822      270.53236     -3.2867193      254800       
    254900   306.38717      186.25273      278.49421     -6.820537       254900       
    255000   339.81839      193.85213      296.15847      0.11920571     255000       
    255100   323.23145      188.20347      285.51611     -3.1969085      255100       
    255200   297.26938      182.03667      271.53313     -8.7726991      255200       
    255300   260.86775      189.04912      267.58643     -5.4893348      255300       
    255400   285.96931      180.99708      267.09152     -5.0206689      255400       
    255500   299.17221      185.41995      275.48928     -0.93226751     255500       
    255600   307.50638      199.09662      291.67505      14.001945      255600       
    255700   329.03115      190.65527      289.71399     -8.2530923      255700       
    255800   322.08525      174.74904      271.71661      9.2030075      255800       
    255900   328.40288      170.30327      269.17284     -4.4925713      255900       
    256000   290.69847      182.05531      269.57352     -4.1080036      256000       
    256100   306.95721      181.55954      273.97264     -8.2969165      256100       
    256200   341.26519      180.18635      282.92827     -0.015267669    256200       
    256300   304.12996      199.67775      291.23966      10.280905      256300       
    256400   367.65795      169.85119      280.53896      10.723222      256400       
    256500   292.96574      176.3333       264.5341      -2.6385732      256500       
    256600   263.07446      182.57949      261.78116      6.2867404      256600       
    256700   293.34504      184.38001      272.695        4.2416623      256700       
    256800   330.73437      182.83914      282.41063      8.3688949      256800       
    256900   338.25128      179.61712      281.45166     -2.1860839      256900       
    257000   312.85877      181.5274       275.71723      1.7044654      257000       
    257100   303.26155      179.65045      270.95093     -2.5196138      257100       
    257200   299.79664      175.72807      265.98539      10.023516      257200       
    257300   315.15144      169.72848      264.60854     -7.0708122      257300       
    257400   281.60373      186.94897      271.7291       4.7027835      257400       
    257500   306.80987      194.24304      286.61178     -2.7711825      257500       
    257600   327.34322      186.95616      285.50671      12.187634      257600       
    257700   294.15785      181.22658      269.78628     -4.8678323      257700       
    257800   290.63597      174.73562      262.23501      5.612738       257800       
    257900   273.96036      181.0464       263.5254      -5.714821       257900       
    258000   299.32299      179.4008       269.51552     -8.784188       258000       
    258100   315.89455      179.98016      275.08395     -10.74237       258100       
    258200   319.40204      177.00344      273.1632      -1.8325131      258200       
    258300   296.96766      170.06717      259.47279     -3.3182234      258300       
    258400   245.09376      179.42855      253.21692     -1.7917164      258400       
    258500   284.23751      180.33756      265.91062      0.26923558     258500       
    258600   324.81312      177.91816      275.70698      2.8123453      258600       
    258700   273.9277       195.65613      278.1253      -0.1442046      258700       
    258800   303.83148      181.34913      272.82118      3.1776039      258800       
    258900   279.92953      171.36079      255.63689     -5.1956557      258900       
    259000   291.34287      161.405        249.11721      13.413178      259000       
    259100   281.59173      173.95369      258.73021     -6.5517926      259100       
    259200   286.608        179.95853      266.24526      8.082676       259200       
    259300   289.97338      188.49418      275.7941      -13.872025      259300       
    259400   315.01138      186.29043      281.12833     -6.5613091      259400       
    259500   318.99524      183.39213      279.42942     -9.812013       259500       
    259600   280.43093      181.46108      265.88812      2.8103842      259600       
    259700   280.08208      172.91844      257.24046      8.8828029      259700       
    259800   316.5768       168.13271      263.4419       8.5929983      259800       
    259900   287.30678      191.6056       278.10271      6.7945692      259900       
    260000   307.68402      189.2058       281.83771      0.79126875     260000       
    260100   329.19463      178.77604      277.88397     -2.3898847      260100       
    260200   274.21957      188.15171      270.70875      0.75290832     260200       
    260300   290.48897      172.76616      260.22129      0.73636963     260300       
    260400   268.20669      160.80883      241.55562     -7.6604158      260400       
    260500   234.73473      177.00324      247.67291     -4.6694081      260500       
    260600   261.16467      181.91237      260.53908     -5.9046398      260600       
    260700   305.82082      176.7763       268.84727      16.982508      260700       
    260800   288.09347      191.84639      278.58033     -3.1969781      260800       
    260900   315.16775      184.27199      279.15697     -5.6080306      260900       
    261000   269.51811      182.06378      263.20539      2.4027725      261000       
    261100   266.45208      175.71843      255.93697      12.958634      261100       
    261200   292.01736      176.16577      264.08105      0.5112407      261200       
    261300   283.37341      184.77456      270.08747     -5.54513        261300       
    261400   305.66566      181.75243      273.77669     -3.8260861      261400       
    261500   291.87488      186.91134      274.78373     -7.1300282      261500       
    261600   294.45247      185.60703      274.25543     -2.1675563      261600       
    261700   288.21158      183.23312      270.00262     -0.95025334     261700       
    261800   251.45097      188.40821      264.1105       12.759012      261800       
    261900   282.19267      181.48705      266.44449      11.715625      261900       
    262000   301.64112      186.08248      276.89511      9.4954193      262000       
    262100   308.378        194.57699      287.41784     -6.159717       262100       
    262200   298.58801      190.62507      280.51852      3.147055       262200       
    262300   306.11275      166.90805      259.06691     -3.1893455      262300       
    262400   265.18738      182.87044      262.70824     -1.1919087      262400       
    262500   307.18894      180.39322      272.87608      7.3799709      262500       
    262600   300.58885      192.40209      282.89792      9.2106272      262600       
    262700   308.1804       184.01067      276.79202      7.5214859      262700       
    262800   276.01733      173.27254      256.37082     -7.4626178      262800       
    262900   265.77933      176.43427      256.45028     -6.4564104      262900       
    263000   297.76672      173.8174       263.46359     -6.57511        263000       
    263100   291.09008      186.14796      273.78407     -1.2937332      263100       
    263200   295.61128      190.47705      279.47432      0.30106978     263200       
    263300   314.9689       183.51506      278.34016     -9.7088643      263300       
    263400   259.64188      187.26772      265.43597      9.0271722      263400       
    263500   271.39605      170.09335      251.80033      4.6044837      263500       
    263600   284.54254      170.20029      255.86518      15.180448      263600       
    263700   320.59401      172.85809      269.3767      -4.5195026      263700       
    263800   275.20452      192.69731      275.55088     -0.91346855     263800       
    263900   314.88574      180.00069      274.80077      6.8583533      263900       
    264000   330.79755      176.38415      275.97466     -15.259935      264000       
    264100   298.93863      178.90765      268.90666     -12.558279      264100       
    264200   275.36828      174.51184      257.41471      4.4912625      264200       
    264300   314.0616       164.93729      259.48925      5.6205932      264300       
    264400   335.60703      174.57302      275.61148     -1.1010784      264400       
    264500   312.22806      187.823        281.82294      3.946802       264500       
    264600   276.60562      191.97292      275.24831      5.312596       264600       
    264700   269.47304      186.3758       267.50384     -4.9466158      264700       
    264800   306.50149      170.85266      263.12855     -6.4563563      264800       
    264900   322.20141      176.57482      273.57736     -2.8875179      264900       
    265000   336.68591      191.30282      292.66609     -0.3366529      265000       
    265100   328.73518      186.48164      285.45125     -3.4882358      265100       
    265200   309.68566      177.43277      270.6673       8.5321686      265200       
    265300   285.95261      178.44308      264.5325      -3.4892153      265300       
    265400   274.73479      183.75184      266.46399     -6.4266817      265400       
    265500   286.39015      196.98035      283.20148     -5.6897434      265500       
    265600   325.92111      198.22007      296.34247     -5.6412016      265600       
    265700   321.60593      187.88968      284.71295      7.2578718      265700       
    265800   321.58385      172.81612      269.63274      5.4572727      265800       
    265900   279.79858      185.76064      269.99731     -2.8688399      265900       
    266000   286.33128      188.02967      274.23309      2.4834597      266000       
    266100   342.05174      177.46407      280.44279     -1.3763881      266100       
    266200   316.40239      182.20254      277.45922      16.259122      266200       
    266300   263.21493      181.95778      261.20175      3.2808272      266300       
    266400   291.75478      167.98552      255.82174      12.303413      266400       
    266500   292.09864      177.39358      265.33333      10.246792      266500       
    266600   312.24171      183.64847      277.65252      1.9428831      266600       
    266700   237.19514      204.14454      275.55494     -8.0823881      266700       
    266800   288.10622      185.35953      272.09731      1.4994675      266800       
    266900   292.00442      178.88349      266.79487     -8.3494557      266900       
    267000   298.55399      167.78493      257.66814      2.1537582      267000       
    267100   293.36803      164.67443      252.99634      1.7055266      267100       
    267200   295.19023      176.72223      265.59273     -2.8954307      267200       
    267300   315.84718      182.64991      277.73943      5.8767649      267300       
    267400   311.9056       185.06432      278.96719     -2.7090354      267400       
    267500   281.48113      186.18205      270.92527     -8.000729       267500       
    267600   288.73024      169.58032      256.50597      1.1591736      267600       
    267700   245.43852      175.32838      249.22055      2.3236068      267700       
    267800   263.99298      183.12601      262.60421      9.4876584      267800       
    267900   306.45962      186.99074      279.25403     -8.2668886      267900       
    268000   333.32439      181.61896      281.9702       5.8284371      268000       
    268100   336.27005      174.98716      276.22523     -3.2690453      268100       
    268200   272.42328      179.84459      261.86084      4.4907327      268200       
    268300   277.19946      176.4582       259.91238      4.7728146      268300       
    268400   284.69444      182.05066      267.76129      14.945746      268400       
    268500   337.60802      189.61042      291.2513      -19.298945      268500       
    268600   345.43599      183.47241      287.46999      7.343064       268600       
    268700   301.14973      185.88145      276.54613      7.7209219      268700       
    268800   309.14667      175.58859      268.66085     -5.2118449      268800       
    268900   276.73979      182.28393      265.59971     -8.0041117      268900       
    269000   304.22689      186.49473      278.08583      6.6344416      269000       
    269100   348.9422       190.59798      295.65116      1.7874561      269100       
    269200   316.31902      191.48603      286.71761      0.9142992      269200       
    269300   289.80904      186.66086      273.91129     -18.143418      269300       
    269400   299.36484      177.87897      268.00629      15.56345       269400       
    269500   299.06771      177.6705       267.70837     -7.6629921      269500       
    269600   272.0009       186.74864      268.63773      15.207471      269600       
    269700   293.86957      199.72412      288.19702     -10.313138      269700       
    269800   320.04069      197.67487      294.0269       5.2443784      269800       
    269900   291.06748      191.74177      279.37107     -14.036301      269900       
    270000   308.49728      176.5627       269.43945     -0.10087473     270000       
    270100   280.31255      181.39193      265.78333     -10.501072      270100       
    270200   282.80511      184.19472      269.33654      4.9132619      270200       
    270300   353.51272      181.34818      287.77736     -12.277287      270300       
    270400   330.26551      199.38932      298.81966      20.836225      270400       
    270500   324.18244      186.65655      284.2555       9.5761552      270500       
    270600   326.48242      178.22571      276.5171       15.330119      270600       
    270700   284.05266      184.32139      269.8388      -2.5062898      270700       
    270800   286.68048      179.04849      265.35704      9.4877779      270800       
    270900   307.14312      171.80252      264.27159     -10.227833      270900       
    271000   317.44749      183.99553      279.56685      11.427056      271000       
    271100   346.13459      181.10049      285.3084      -15.243463      271100       
    271200   325.77104      176.85987      274.93709      4.7878926      271200       
    271300   250.8698       182.76141      258.28873     -4.0102649      271300       
    271400   302.63382      166.60595      257.71744      9.5456288      271400       
    271500   281.59561      179.01823      263.79592     -0.86766591     271500       
    271600   331.03772      174.31404      273.97686     -0.27037255     271600       
    271700   318.54973      184.51333      280.41649     -3.7844569      271700       
    271800   316.26194      182.00721      277.2216       5.431821       271800       
    271900   311.24544      179.41873      273.12285      0.4640701      271900       
    272000   334.04425      170.09992      270.66789      7.0153654      272000       
    272100   320.63475      171.44368      267.97456     -3.1016591      272100       
    272200   254.47966      181.8819       258.49601      3.9413096      272200       
    272300   281.11777      170.61731      255.25113      6.2856421      272300       
    272400   324.32746      173.79205      271.43466      11.284154      272400       
    272500   324.97454      184.54495      282.38238     -9.100766       272500       
    272600   313.38763      182.4953       276.84435     -3.2159108      272600       
    272700   295.25685      176.90836      265.79893      5.4912925      272700       
    272800   280.54656      171.75301      256.21487     -5.4221984      272800       
    272900   286.51582      165.14801      251.40698     -2.8108589      272900       
    273000   298.22815      168.16065      257.94575     -3.3932492      273000       
    273100   292.53442      188.0297       276.10064      6.0250102      273100       
    273200   308.59036      189.08441      281.98918     -1.3734761      273200       
    273300   282.02135      191.95375      276.8596      -2.6179627      273300       
    273400   285.82614      173.86218      259.91352     -2.9877229      273400       
    273500   280.88399      170.9247       255.48814      4.0753314      273500       
    273600   314.95874      173.23542      268.05747     -5.1299635      273600       
    273700   302.15864      183.14521      274.11364      5.0548748      273700       
    273800   348.98983      172.29009      277.3576       0.46827935     273800       
    273900   292.91096      186.39783      274.58214      9.0088556      273900       
    274000   320.50019      173.54435      270.03472      10.653925      274000       
    274100   298.05586      168.78464      258.51788     -10.182781      274100       
    274200   296.56091      163.46602      252.74919     -14.774907      274200       
    274300   265.09008      186.84622      266.65472      5.3272687      274300       
    274400   293.32916      190.07906      278.38927     -10.92811       274400       
    274500   329.1021       182.06781      281.14788      6.5071725      274500       
    274600   340.93089      170.35719      272.99846     -1.3603526      274600       
    274700   267.66032      181.74916      262.33146      9.9605694      274700       
    274800   248.3552       180.1949       254.96517     -8.6567041      274800       
    274900   319.16388      176.93171      273.01976      1.5598823      274900       
    275000   322.13762      184.34598      281.32931     -8.4552704      275000       
    275100   314.72562      181.71521      276.46707      4.2950179      275100       
    275200   261.2925       186.94428      265.60947     -6.6236512      275200       
    275300   255.24421      184.68818      261.53247      7.385901       275300       
    275400   301.69332      182.53594      273.36428      0.40659255     275400       
    275500   342.28298      186.8149       289.86323      1.2050666      275500       
    275600   294.80631      197.22781      285.98274     -1.6898657      275600       
    275700   291.25022      185.47139      273.15571     -3.8476216      275700       
    275800   295.22265      176.23673      265.117       -3.6439709      275800       
    275900   301.84217      175.12211      265.99526     -2.7702382      275900       
    276000   334.66343      180.95276      281.70714      5.1133267      276000       
    276100   314.14186      200.56291      295.13903     -0.80561052     276100       
    276200   305.62536      189.62077      281.6329      -1.1440224      276200       
    276300   288.24485      184.46152      271.24104      2.4423708      276300       
    276400   284.67186      181.96048      267.6643      -4.5502702      276400       
    276500   300.36523      180.47066      270.89916      8.1098981      276500       
    276600   318.96791      190.52706      286.55612     -7.0010268      276600       
    276700   350.08371      189.9636       295.36043      9.6314556      276700       
    276800   302.19428      187.48118      278.46034     -12.542843      276800       
    276900   288.24167      185.41837      272.19693      8.3468934      276900       
    277000   270.12142      188.31495      269.63819     -13.717259      277000       
    277100   278.98846      186.92111      270.91389      11.743938      277100       
    277200   288.28951      187.81417      274.60713      6.1297819      277200       
    277300   331.19876      191.14068      290.85198      18.254455      277300       
    277400   338.49538      193.62602      295.53405      4.8306194      277400       
    277500   275.43387      199.35778      282.2804      -4.9043786      277500       
    277600   264.36554      185.74093      265.3313      -4.6430332      277600       
    277700   293.61331      177.91425      266.31        -8.4855005      277700       
    277800   310.92375      180.30791      273.91518     -8.4849007      277800       
    277900   320.24701      188.35592      284.77007      8.1381647      277900       
    278000   308.39311      200.14026      292.98565     -0.0042493164   278000       
    278100   301.47684      197.9331       288.69627     -6.1474743      278100       
    278200   278.96932      183.2843       267.27131      4.9216165      278200       
    278300   293.59286      174.96627      263.35587     -6.3031901      278300       
    278400   273.17705      184.95295      267.19612      2.7355735      278400       
    278500   276.32219      200.17652      283.36658     -4.0984991      278500       
    278600   329.9468       192.20781      291.5422      -5.8049441      278600       
    278700   342.51036      179.84528      282.96207      1.4039254      278700       
    278800   287.89694      187.458        274.13277     -8.2828108      278800       
    278900   303.88054      178.50347      269.99029      8.8793092      278900       
    279000   261.43923      186.8782       265.58757     -6.7411669      279000       
    279100   290.8215       173.40132      260.95657     -12.553244      279100       
    279200   311.20579      169.59921      263.29139     -4.891909       279200       
    279300   306.82124      182.92697      275.29913     -11.271277      279300       
    279400   327.2404       185.53939      284.05898      0.87826882     279400       
    279500   288.16642      191.29996      278.05586      6.2249995      279500       
    279600   287.0543       176.25261      262.6737      -1.0088407      279600       
    279700   271.98549      176.31827      258.20272      5.8741059      279700       
    279800   288.94685      174.20772      261.19858     -12.325581      279800       
    279900   286.71643      183.19889      269.51826      15.577596      279900       
    280000   283.52391      190.98636      276.34459     -4.78788        280000       
    280100   321.58655      181.19138      278.00881     -2.1892321      280100       
    280200   322.77064      182.1676       279.34151     -12.84454       280200       
    280300   325.41979      176.25325      274.22472     -17.463506      280300       
    280400   297.51843      180.4881       270.05954     -1.6566294      280400       
    280500   282.2018       178.2796       263.23979      3.5161194      280500       
    280600   291.43925      172.83353      260.57476      14.358987      280600       
    280700   303.42187      183.34816      274.6969      -2.6854732      280700       
    280800   329.06521      185.57983      284.64879      3.5905278      280800       
    280900   332.40952      179.21977      279.29559      15.90705       280900       
    281000   290.9814       174.35508      261.95847     -4.4249638      281000       
    281100   255.37075      179.13285      256.01523     -13.956597      281100       
    281200   263.92906      183.73126      263.19022     -13.044613      281200       
    281300   302.08998      180.58345      271.5312       6.6318925      281300       
    281400   311.8981       187.66164      281.56225      10.920733      281400       
    281500   337.00889      182.5277       283.9882       10.622388      281500       
    281600   268.24809      180.5324       261.29165      3.5576253      281600       
    281700   280.75984      174.3328       258.85887      3.5049259      281700       
    281800   259.43558      186.83094      264.93708     -15.487973      281800       
    281900   274.19973      197.36742      279.91848     -12.56851       281900       
    282000   304.12422      188.20288      279.76307     -7.5010431      282000       
    282100   285.26684      189.78238      275.66534     -5.436214       282100       
    282200   272.79094      191.88748      274.01442      8.8261253      282200       
    282300   269.46604      188.51833      269.64426     -6.8162926      282300       
    282400   292.51377      170.00357      258.0683       4.9717091      282400       
    282500   278.47703      159.53107      243.36987      0.5420386      282500       
    282600   264.81039      170.992        250.7163      -0.515362       282600       
    282700   333.27225      166.86923      267.20477     -6.9631478      282700       
    282800   292.71895      184.79454      272.92104      0.066729118    282800       
    282900   314.9862       184.32491      279.15523     -0.11922623     282900       
    283000   345.44238      176.92843      280.92794     -3.6698722      283000       
    283100   302.94721      173.31374      264.51958      7.6824224      283100       
    283200   268.80799      176.18615      257.11397      7.4848552      283200       
    283300   256.36639      186.84216      264.02429     -2.7314678      283300       
    283400   305.32407      187.07252      278.99394      2.1083812      283400       
    283500   334.85037      173.47296      274.28362     -8.587023       283500       
    283600   326.21725      172.85531      271.06687      2.0861448      283600       
    283700   322.50119      168.99988      266.09268     -1.6613422      283700       
    283800   284.3339       172.97161      258.57369      0.23493078     283800       
    283900   267.26061      172.74328      253.20524     -3.8315636      283900       
    284000   291.10458      179.97219      267.61266     -7.75849        284000       
    284100   287.7814       194.62387      281.26386      5.2825515      284100       
    284200   307.87876      188.08196      280.7725      -0.36857241     284200       
    284300   289.89314      182.63396      269.90972      8.0801177      284300       
    284400   256.82084      180.59269      257.91164      8.0115921      284400       
    284500   281.01663      172.25127      256.85465      2.659768       284500       
    284600   299.889        185.51481      275.79994      8.3440305      284600       
    284700   338.92237      188.83286      290.86944     -14.885919      284700       
    284800   318.03621      183.12405      278.87261      5.2511924      284800       
    284900   274.2382       183.25128      265.81393     -1.3679548      284900       
    285000   300.72471      175.84428      266.381       -7.5623904      285000       
    285100   303.02049      186.13654      277.36444     -6.7110837      285100       
    285200   316.87407      195.11205      290.51073      3.6388271      285200       
    285300   306.68869      195.32371      287.65597     -6.75536        285300       
    285400   335.42502      179.0921       280.07577     -3.1804298      285400       
    285500   301.18823      183.46892      274.1452      -7.9320591      285500       
    285600   315.22823      173.59482      268.498        5.1186135      285600       
    285700   259.94593      185.73506      263.99486      14.372388      285700       
    285800   314.49738      169.97629      264.65944      8.8026475      285800       
    285900   316.16197      182.60471      277.78901      6.2295088      285900       
    286000   337.98018      185.53542      287.28834     -3.5421487      286000       
    286100   322.44653      188.20897      285.28531      5.1168925      286100       
    286200   312.46909      171.12951      265.20203     -4.4713985      286200       
    286300   285.58485      176.71749      262.69618     -2.1745876      286300       
    286400   259.05149      191.29542      269.28594     -3.5175421      286400       
    286500   279.40467      194.32049      278.43857     -4.3436156      286500       
    286600   318.0276       189.95202      285.69798     -1.1034259      286600       
    286700   318.73836      183.35934      279.31929     -3.447176       286700       
    286800   293.38118      178.00526      266.33113      10.551573      286800       
    286900   241.44499      188.91588      261.60574     -2.6611968      286900       
    287000   301.43767      178.09258      268.84395      0.75570261     287000       
    287100   340.00745      184.54274      286.906       -1.1917077      287100       
    287200   321.2336       189.71168      286.42285      6.6494858      287200       
    287300   312.66188      183.9066       278.03715     -20.291925      287300       
    287400   279.40467      188.98431      273.10238     -8.8532716      287400       
    287500   300.54663      177.25983      267.74294     -1.2654622      287500       
    287600   321.21493      172.69612      269.40167      5.6242187      287600       
    287700   307.49812      187.96066      280.5366       4.9485164      287700       
    287800   296.70074      205.14198      294.46724     -7.256531       287800       
    287900   327.6826       186.9751       285.62782      11.883653      287900       
    288000   284.52611      188.12057      273.78052     -8.0765649      288000       
    288100   293.55614      180.94774      269.32629     -2.4343919      288100       
    288200   280.40451      185.10568      269.52477     -17.382704      288200       
    288300   284.78977      190.00311      275.74243     -15.724982      288300       
    288400   326.78058      195.90855      294.2897      -2.0381694      288400       
    288500   294.61024      202.69015      291.38604     -9.9606837      288500       
    288600   277.30878      189.42694      272.91402      16.957201      288600       
    288700   300.86456      178.16286      268.74169      3.1527865      288700       
    288800   330.78309      171.34955      270.93571      1.6218344      288800       
    288900   320.5701       181.11229      277.6237       12.300757      288900       
    289000   355.32377      186.37869      293.35311     -9.2645002      289000       
    289100   356.84358      183.93459      291.36656     -4.8094516      289100       
    289200   296.35952      181.83567      271.0582      -6.0785465      289200       
    289300   278.74658      181.74404      265.66399     -5.1301076      289300       
    289400   293.10829      180.15766      268.40138      8.5330327      289400       
    289500   337.05245      178.44123      279.91485     -6.9448533      289500       
    289600   335.78177      190.82226      291.91333      2.3172733      289600       
    289700   289.52814      199.26227      286.42814      3.0315789      289700       
    289800   254.83557      189.84848      266.56974     -1.0347637      289800       
    289900   290.82551      177.60597      265.16243      10.752512      289900       
    290000   298.01651      183.63263      273.35402      1.1485225      290000       
    290100   334.74819      182.8636       283.6435      -0.84302202     290100       
    290200   297.20155      192.33259      281.80863     -0.19509954     290200       
    290300   293.90264      171.41702      259.89989     -6.8830034      290300       
    290400   252.48172      179.27384      255.28645      6.7955647      290400       
    290500   298.4219       174.83275      264.67619      4.9351264      290500       
    290600   265.36195      197.97908      277.86943      1.7217428      290600       
    290700   311.19799      189.57903      283.26886      9.3557076      290700       
    290800   326.60895      178.60422      276.9337       0.66357046     290800       
    290900   293.19676      170.16412      258.43447      7.5935975      290900       
    291000   280.64211      171.76761      256.25823      7.4282122      291000       
    291100   280.88001      180.50953      265.07177     -6.0896729      291100       
    291200   298.67279      183.80172      273.72069     -5.0622307      291200       
    291300   283.87915      194.96422      280.42939     -16.173538      291300       
    291400   316.55517      190.60941      285.91208     -2.6091419      291400       
    291500   308.12672      204.11597      296.88116     -5.9122852      291500       
    291600   372.77629      179.59855      291.82726     -2.3667427      291600       
    291700   308.6007       181.3771       274.28499      12.191541      291700       
    291800   283.4411       183.55262      268.88591      12.464049      291800       
    291900   292.69605      184.13634      272.25594      7.3433217      291900       
    292000   311.1669       190.84952      284.52999      3.2207184      292000       
    292100   351.55026      192.14594      297.9843      -13.143024      292100       
    292200   323.18651      186.6012       283.90031     -10.019216      292200       
    292300   271.29983      186.77091      268.44893     -11.157953      292300       
    292400   283.31019      184.76329      270.05717     -7.5237906      292400       
    292500   309.90494      183.0063       276.30684      5.8663917      292500       
    292600   324.81116      186.18171      283.96995      10.258328      292600       
    292700   334.51178      187.74366      288.45238      3.125018       292700       
    292800   285.03404      186.93824      272.75111      6.6322537      292800       
    292900   249.32509      186.72688      261.78915      0.71446962     292900       
    293000   300.58687      175.4459       265.94113     -6.4152585      293000       
    293100   323.88023      182.43316      279.94113     -3.3692776      293100       
    293200   303.00831      195.81121      287.03544     -16.244252      293200       
    293300   318.11583      181.91125      277.68378     -0.17775444     293300       
    293400   279.80681      174.57995      258.8191       7.8560826      293400       
    293500   282.48415      178.79587      263.84106      6.677247       293500       
    293600   307.21439      183.99585      276.48637      3.525917       293600       
    293700   307.33407      191.61249      284.13904      5.9277234      293700       
    293800   303.91593      190.44199      281.93947     -8.0554295      293800       
    293900   315.43186      175.96385      270.92834     -8.0552886      293900       
    294000   307.64676      170.03629      262.65698      1.5257017      294000       
    294100   286.27174      173.92694      260.11243      2.9991357      294100       
    294200   343.82556      176.1325       279.64524      2.1824267      294200       
    294300   316.38826      192.57123      287.82366      5.2790734      294300       
    294400   323.22981      182.01385      279.326        7.4634595      294400       
    294500   263.21397      188.04136      267.28504      1.6270505      294500       
    294600   279.1429       177.34187      261.38114      12.501458      294600       
    294700   298.14465      175.51421      265.27418     -5.9978869      294700       
    294800   323.5724       189.77452      287.18981      4.934729       294800       
    294900   285.49542      200.92304      286.87481     -6.8696389      294900       
    295000   336.11104      175.17161      276.36181      14.585674      295000       
    295100   326.19844      171.19222      269.39811     -9.6185176      295100       
    295200   317.73392      172.88851      268.54606      9.8421238      295200       
    295300   274.90117      189.95866      272.72091     -12.644465      295300       
    295400   287.63315      185.22179      271.81715      3.1906586      295400       
    295500   296.23676      196.82917      286.01475     -21.048853      295500       
    295600   363.91034      194.28643      303.84594      5.1117847      295600       
    295700   332.90516      189.46406      289.68909     -7.6990405      295700       
    295800   318.83885      179.27269      275.26289      0.80425988     295800       
    295900   292.5938       179.24203      267.33085      9.9515413      295900       
    296000   255.52991      186.8228       263.7531       2.8989866      296000       
    296100   264.85255      180.56356      260.30055      4.8398087      296100       
    296200   291.11567      175.40682      263.05063     -7.8620471      296200       
    296300   327.39092      180.90894      279.47385     -5.6035702      296300       
    296400   309.07654      193.69948      286.75062     -5.6540213      296400       
    296500   286.46489      193.66763      279.91127     -0.72165641     296500       
    296600   289.22067      173.93356      261.00686     -7.7699139      296600       
    296700   296.95418      170.47183      259.8734       5.9764019      296700       
    296800   307.67047      173.3219       265.94973      3.3235817      296800       
    296900   310.01608      180.22968      273.56368      9.1633214      296900       
    297000   326.86076      181.69908      280.10437     -2.1399691      297000       
    297100   314.3553       177.68974      272.33011     -1.6069398      297100       
    297200   281.859        171.48524      256.34222      1.9456591      297200       
    297300   255.31706      182.25245      259.11866     -10.27793       297300       
    297400   285.82124      187.67848      273.72834     -4.2858899      297400       
    297500   304.02422      189.86703      281.39711      3.1304657      297500       
    297600   339.77601      175.81654      278.11012      8.0667914      297600       
    297700   270.28396      185.21782      266.59         12.652664      297700       
    297800   236.10377      176.87414      247.95597      0.50804693     297800       
    297900   252.71496      170.68782      246.77064      1.8357826      297900       
    298000   269.63343      176.96482      258.14115     -5.1311041      298000       
    298100   283.29975      182.42936      267.72009     -1.0362525      298100       
    298200   324.71524      179.95875      277.71811      7.3794009      298200       
    298300   319.77088      184.77999      281.05079     -10.100537      298300       
    298400   318.61009      180.00542      275.92675      5.8400748      298400       
    298500   264.90014      179.8833       259.63462      7.9810348      298500       
    298600   285.6985       170.76793      256.78084     -6.8684515      298600       
    298700   290.1349       179.69589      267.04443     -0.28804961     298700       
    298800   298.84767      194.98497      284.9566      -3.7451698      298800       
    298900   346.55984      179.5025       283.83843     -0.16864627     298900       
    299000   311.71332      183.70597      277.55095     -17.9504        299000       
    299100   313.00106      177.98894      272.22161     -0.47411675     299100       
    299200   299.661        180.56899      270.78547      4.3429949      299200       
    299300   263.35772      188.927        268.21395      4.3921714      299300       
    299400   296.38012      176.77445      266.00319      4.3816468      299400       
    299500   290.99183      182.16176      269.76829      10.742398      299500       
    299600   328.19029      179.81007      278.61563     -4.5560188      299600       
    299700   349.23576      178.09643      283.23798     -0.46377838     299700       
    299800   301.65731      183.47796      274.29545      6.5832327      299800       
    299900   265.22447      178.44746      258.29642     -4.7640619      299900       
    300000   299.55284      168.05064      258.23457      4.7339215      300000       
Loop time of 11.4082 on 6 procs for 100000 steps with 102 atoms

Performance: 757.353 ns/day, 0.032 hours/ns, 8765.661 timesteps/s
99.7% CPU use with 6 MPI tasks x no OpenMP threads

MPI task timing breakdown:
Section |  min time  |  avg time  |  max time  |%varavg| %total
---------------------------------------------------------------
Pair    | 0.0035431  | 0.58229    | 2.5288     | 119.2 |  5.10
Bond    | 0.0048832  | 0.66608    | 2.1086     | 104.2 |  5.84
Kspace  | 5.7229     | 8.7912     | 10.044     |  52.5 | 77.06
Neigh   | 0.10297    | 0.10496    | 0.10816    |   0.7 |  0.92
Comm    | 0.030806   | 0.64457    | 1.1794     |  58.3 |  5.65
Output  | 0.0089006  | 0.010022   | 0.015301   |   2.4 |  0.09
Modify  | 0.16146    | 0.49964    | 1.1026     |  60.4 |  4.38
Other   |            | 0.1094     |            |       |  0.96

Nlocal:             17 ave          68 max           0 min
Histogram: 3 0 2 0 0 0 0 0 0 1
Nghost:        118.333 ave         202 max           0 min
Histogram: 2 0 0 0 0 0 1 0 0 3
Neighs:            749 ave        3948 max           0 min
Histogram: 4 1 0 0 0 0 0 0 0 1

Total # of neighbors = 4494
Ave neighs/atom = 44.058824
Ave special neighs/atom = 12.019608
Neighbor list builds = 1804
Dangerous builds = 0
write_restart  system.${epoch}.restart
write_restart  system.3.restart
System init for write_restart ...
PPPM initialization ...
  using 12-bit tables for long-range coulomb (../kspace.cpp:340)
  G vector (1/distance) = 0.092609207
  grid = 8 8 8
  stencil order = 5
  estimated absolute RMS force accuracy = 0.03309473
  estimated relative force accuracy = 9.9663797e-05
  using double precision KISS FFT
  3d grid and FFT values/proc = 936 128
  generated 2346 of 2346 mixed pair_coeff terms from geometric mixing rule
if          "${epoch} >= 50" then "jump SELF break"
next        epoch
jump        SELF loop
print       "EPOCH = ${epoch}"
EPOCH = 4
run         100000  # 100 ps each time
PPPM initialization ...
  using 12-bit tables for long-range coulomb (../kspace.cpp:340)
  G vector (1/distance) = 0.092609207
  grid = 8 8 8
  stencil order = 5
  estimated absolute RMS force accuracy = 0.03309473
  estimated relative force accuracy = 9.9663797e-05
  using double precision KISS FFT
  3d grid and FFT values/proc = 936 128
  generated 2346 of 2346 mixed pair_coeff terms from geometric mixing rule
Per MPI rank memory allocation (min/avg/max) = 13.7 | 14.67 | 15.48 Mbytes
   Step          Temp          PotEng         TotEng         Press           Time     
    300000   299.55284      168.05064      258.23457      4.7339215      300000       
    300100   280.79984      186.04003      270.57814      10.177782      300100       
    300200   274.79975      194.50846      277.24017      15.362516      300200       
    300300   310.00322      183.45         276.78014     -7.0044959      300300       
    300400   341.1319       171.0057       273.70749      2.213314       300400       
    300500   321.77643      170.99609      267.87069     -1.1504571      300500       
    300600   268.54127      174.05429      254.90181     -7.8332402      300600       
    300700   273.06063      168.96433      251.17246      1.2465955      300700       
    300800   278.17503      183.05903      266.80691     -12.716421      300800       
    300900   320.78097      182.94048      279.51538      5.6665727      300900       
    301000   292.1214       190.21122      278.15782      4.1712246      301000       
    301100   329.16466      171.21079      270.3097       3.3639632      301100       
    301200   294.74042      175.36256      264.09765      2.7884636      301200       
    301300   265.24651      180.0074       259.863       -5.4850894      301300       
    301400   296.32688      184.95266      274.16537     -3.6182354      301400       
    301500   306.51804      192.05629      284.33717     -7.0863811      301500       
    301600   344.61699      173.97088      277.7219      -3.9911599      301600       
    301700   293.65961      175.46033      263.87002     -13.605013      301700       
    301800   282.9409       174.68805      259.87076      7.5235997      301800       
    301900   298.37207      174.43537      264.26381      8.8376566      301900       
    302000   307.61017      180.05656      272.66624      3.0847876      302000       
    302100   278.1046       195.73856      279.46523     -0.46373043     302100       
    302200   319.25053      187.13632      283.25047      10.183554      302200       
    302300   252.54328      189.93716      265.96829     -1.9149501      302300       
    302400   282.94712      173.13364      258.31821      5.3398253      302400       
    302500   289.69979      176.05165      263.2692       8.7987998      302500       
    302600   324.19277      180.29452      277.89659      27.22819       302600       
    302700   337.6597       180.48048      282.13692      6.4098779      302700       
    302800   317.22258      180.50745      276.01105      4.748132       302800       
    302900   318.33927      178.65432      274.49412     -7.7388569      302900       
    303000   278.39865      191.02992      274.84513     -4.478008       303000       
    303100   293.48662      188.27356      276.63117     -20.534947      303100       
    303200   338.73768      184.37307      286.35405      5.9970977      303200       
    303300   359.75881      189.1817       297.49135     -4.848373       303300       
    303400   258.34402      208.1473       285.92482      1.9559002      303400       
    303500   303.07352      177.49207      268.73593     -1.3568615      303500       
    303600   288.63567      181.54614      268.44332      6.8924475      303600       
    303700   279.46963      188.10188      272.23951     -9.5042661      303700       
    303800   324.41821      178.88741      276.55734      1.0462052      303800       
    303900   295.03025      188.97148      277.79383     -3.9345418      303900       
    304000   280.91636      189.83118      274.40437     -2.3047328      304000       
    304100   287.21909      183.94959      270.42029      4.7002546      304100       
    304200   269.69015      184.44608      265.63949     -14.200035      304200       
    304300   316.70051      176.90002      272.24644     -2.8655812      304300       
    304400   325.20658      183.17242      281.07971     -4.7985253      304400       
    304500   336.00918      189.12242      290.28196      4.0554317      304500       
    304600   308.47968      184.54143      277.41288      4.4780752      304600       
    304700   275.84478      177.70295      260.74928     -3.78723        304700       
    304800   315.96919      169.91606      265.04232      14.82915       304800       
    304900   290.24534      186.00361      273.3854       2.780159       304900       
    305000   310.21385      189.75997      283.15351      0.19607752     305000       
    305100   343.0054       193.93536      297.20119      9.5605013      305100       
    305200   348.64177      201.84574      306.80847     -0.48755874     305200       
    305300   318.45377      189.10028      284.97455     -4.0751165      305300       
    305400   292.61952      183.36144      271.458        6.9684145      305400       
    305500   276.00958      181.31555      264.41149     -8.3803177      305500       
    305600   299.47878      172.81355      262.97518      13.578522      305600       
    305700   302.73576      179.15313      270.29531     -6.3143786      305700       
    305800   313.66809      186.43072      280.86421      4.7461822      305800       
    305900   306.67093      195.49595      287.82286     -1.7490748      305900       
    306000   266.39785      187.37303      267.57525      4.3192587      306000       
    306100   293.59657      171.68794      260.07866      4.8925009      306100       
    306200   297.31345      178.31115      267.82088      3.8848113      306200       
    306300   322.14563      179.41314      276.39889     -7.9442852      306300       
    306400   335.91124      178.81802      279.94806      5.3653359      306400       
    306500   258.64243      199.32566      277.19302     -2.5637294      306500       
    306600   287.5948       184.73887      271.32269     -5.9146729      306600       
    306700   282.53542      177.52863      262.58926      10.76866       306700       
    306800   296.09488      169.4774       258.62026      7.4236274      306800       
    306900   259.56269      174.46568      252.61009     -12.93976       306900       
    307000   301.92229      173.02217      263.91945     -8.3029806      307000       
    307100   294.19199      188.67551      277.24549      9.950121       307100       
    307200   301.85652      191.44505      282.32252     -1.4281958      307200       
    307300   299.42687      188.31216      278.45816     -1.3227478      307300       
    307400   273.94798      180.33377      262.80904      3.7118098      307400       
    307500   282.29674      164.74532      249.73409      2.7119543      307500       
    307600   264.19881      176.31248      255.85266      0.15033037     307600       
    307700   291.83871      174.89924      262.76073     -6.174342       307700       
    307800   296.13567      182.49055      271.64569      5.9350411      307800       
    307900   289.21062      193.14684      280.21711     -11.249732      307900       
    308000   312.37842      189.52527      283.57048      2.7397891      308000       
    308100   290.33082      192.23063      279.63816      2.0348701      308100       
    308200   256.55314      187.21086      264.44922     -2.1596304      308200       
    308300   278.19906      179.12952      262.88463      11.339127      308300       
    308400   284.83119      189.40111      275.1529       1.3729392      308400       
    308500   343.966        182.39808      285.95311     -10.014666      308500       
    308600   320.0958       187.03743      283.40605      2.5511058      308600       
    308700   274.1475       174.14055      256.6759       5.6691267      308700       
    308800   278.02872      173.76447      257.4683       3.2245967      308800       
    308900   286.11454      183.35466      269.49283     -4.028925       308900       
    309000   289.96813      194.62639      281.92472      2.7433391      309000       
    309100   297.50103      197.43549      287.00169     -3.5787874      309100       
    309200   279.08529      192.61092      276.63284     -3.8077147      309200       
    309300   275.42774      179.89669      262.81746      0.33711776     309300       
    309400   295.76417      174.13919      263.18249      8.7612272      309400       
    309500   281.03532      183.93516      268.54417     -1.1376205      309500       
    309600   317.46016      178.79647      274.3716       1.3023462      309600       
    309700   319.95028      175.47619      271.801        4.1681683      309700       
    309800   298.33736      177.69666      267.51465      2.5279833      309800       
    309900   250.87589      176.9904       252.51955      6.440555       309900       
    310000   296.00057      164.99826      254.11273     -6.0548238      310000       
    310100   289.57298      184.6046       271.78397      6.6938171      310100       
    310200   304.60743      186.4391       278.14476      4.0590285      310200       
    310300   291.31911      190.39724      278.1023       1.6416978      310300       
    310400   277.86084      182.79643      266.44972     -3.1386336      310400       
    310500   244.301        177.14827      250.69797     -3.6147477      310500       
    310600   258.47216      171.43318      249.24928     -10.619251      310600       
    310700   312.88679      181.38931      275.58757      8.4696391      310700       
    310800   310.12365      186.78884      280.15523      1.5999104      310800       
    310900   271.16991      194.63192      276.27082     -14.041011      310900       
    311000   253.86858      188.9829       265.41304      2.1134202      311000       
    311100   289.9174       175.53935      262.8224       3.5169045      311100       
    311200   300.34476      177.30131      267.72365      5.0679002      311200       
    311300   325.89887      184.04636      282.16207     -13.469081      311300       
    311400   308.3873       191.64769      284.49133     -4.0406139      311400       
    311500   292.58935      180.66056      268.74804      4.99666        311500       
    311600   275.30547      176.27456      259.15852     -8.6241979      311600       
    311700   305.92408      169.85099      261.95305     -7.8870764      311700       
    311800   295.00692      181.84854      270.66386     -3.9748749      311800       
    311900   304.02734      185.86309      277.39411      4.099561       311900       
    312000   347.32057      177.49732      282.06228     -2.4314454      312000       
    312100   281.93202      189.88594      274.76491      10.320633      312100       
    312200   257.11459      186.90582      264.31321      6.8729741      312200       
    312300   283.38671      175.96585      261.28276      1.8506989      312300       
    312400   301.94286      179.63924      270.5427       1.7329946      312400       
    312500   346.8045       178.22877      282.63836     -1.6301054      312500       
    312600   333.47564      184.639        285.03579      1.0001092      312600       
    312700   282.94083      185.03127      270.21395      0.46285734     312700       
    312800   265.2028       180.00124      259.84368     -1.2382685      312800       
    312900   306.81741      172.05923      264.43024     -7.8496954      312900       
    313000   331.11273      176.83602      276.52142     -12.848778      313000       
    313100   323.54533      186.84125      284.2484      -1.6730559      313100       
    313200   307.67002      186.06163      278.68932      1.5158938      313200       
    313300   269.06286      179.3973       260.40185      4.2838616      313300       
    313400   238.96124      186.65829      258.60039      4.4333874      313400       
    313500   301.96861      176.71863      267.62985      1.2696162      313500       
    313600   296.0036       185.20605      274.32143     -3.1621038      313600       
    313700   309.94063      184.21835      277.52963     -9.4386722      313700       
    313800   306.3311       177.4528       269.6774       10.843089      313800       
    313900   257.55576      173.85917      251.39937      0.095485297    313900       
    314000   246.84662      183.69509      258.01118     -7.3820313      314000       
    314100   300.59806      182.69249      273.19108     -9.0532369      314100       
    314200   296.15996      187.78099      276.94344      17.203633      314200       
    314300   319.88697      178.29699      274.60274      0.83345764     314300       
    314400   302.80051      169.29792      260.45959      4.694341       314400       
    314500   228.82568      184.00213      252.89281     -5.2564075      314500       
    314600   281.38501      176.50025      261.21454      6.2179313      314600       
    314700   274.28806      187.34863      269.92629     -16.572609      314700       
    314800   319.86094      179.28323      275.58115      7.431433       314800       
    314900   301.32097      191.72088      282.43712     -6.9007218      314900       
    315000   299.80251      191.65221      281.9113       9.2308422      315000       
    315100   323.29445      174.54629      271.8779      -12.447091      315100       
    315200   294.7995       169.15916      257.91203      6.4615301      315200       
    315300   258.40162      182.7512       260.54606     -0.73391885     315300       
    315400   279.99118      187.69008      271.98473     -9.1507642      315400       
    315500   312.26359      182.32893      276.33958     -9.3889102      315500       
    315600   329.67815      176.71945      275.97295      0.84766679     315600       
    315700   287.19803      184.52767      270.99203     -5.7012349      315700       
    315800   256.77028      189.38972      266.69345      15.398984      315800       
    315900   273.80104      178.06763      260.49867     -6.4426248      315900       
    316000   287.54059      177.12616      263.69365      3.4276263      316000       
    316100   336.18693      176.08032      277.29336      13.578339      316100       
    316200   324.99464      187.17226      285.01574     -4.416443       316200       
    316300   278.15126      196.34758      280.08831     -3.0248318      316300       
    316400   278.08874      176.55738      260.27928     -0.056309957    316400       
    316500   274.52904      178.85774      261.50795     -4.9100093      316500       
    316600   303.26849      175.15356      266.45613      3.6394073      316600       
    316700   315.95098      182.04607      277.16684     -11.741801      316700       
    316800   336.5217       181.89246      283.20629      4.7498674      316800       
    316900   337.08856      179.42284      280.90734      4.28733        316900       
    317000   278.87789      175.72832      259.6878       4.7085109      317000       
    317100   287.58063      170.39754      256.97709     -1.9954013      317100       
    317200   281.0154       186.38785      270.99086      0.74471794     317200       
    317300   309.86708      188.55016      281.8393      -1.5909325      317300       
    317400   296.25375      190.31618      279.50687      10.110339      317400       
    317500   330.58387      169.71714      269.24332     -7.0588518      317500       
    317600   275.51313      166.79034      249.73683     -1.2841256      317600       
    317700   285.52802      168.19422      254.1558       10.553706      317700       
    317800   285.18246      181.45663      267.31417      0.17816945     317800       
    317900   319.95637      178.30744      274.63409      0.65600858     317900       
    318000   307.63946      181.63664      274.25514      12.988597      318000       
    318100   296.90282      180.18269      269.56879     -15.472779      318100       
    318200   276.31624      174.27971      257.46798     -4.6133389      318200       
    318300   253.07874      177.88625      254.0786       4.9597769      318300       
    318400   306.06548      177.70561      269.85024      5.5792089      318400       
    318500   304.06197      186.29269      277.83414     -10.746805      318500       
    318600   303.80097      186.78269      278.24556     -1.8109138      318600       
    318700   292.32524      183.68398      271.69194     -2.9032459      318700       
    318800   263.58639      182.09016      261.44596     -5.9719444      318800       
    318900   264.8612       168.86464      248.60424     -7.4599833      318900       
    319000   272.80129      170.87406      253.00411      12.61098       319000       
    319100   268.65917      188.65254      269.53556     -9.2064376      319100       
    319200   326.74251      174.85786      273.22755     -2.8712325      319200       
    319300   339.53235      170.94827      273.1685       0.99288472     319300       
    319400   290.85968      182.73056      270.2973      -4.1382445      319400       
    319500   264.81858      179.9277       259.65447      6.3488573      319500       
    319600   245.77874      183.9677       257.9623      -8.539194       319600       
    319700   300.33274      177.92894      268.34766     -5.8166242      319700       
    319800   290.6614       194.90813      282.41518     -11.083665      319800       
    319900   307.18997      190.53998      283.02315      4.1141234      319900       
    320000   291.87109      183.38926      271.2605      -8.1736868      320000       
    320100   263.46016      178.20471      257.5225      -1.5491918      320100       
    320200   278.05921      178.06806      261.78107      13.523025      320200       
    320300   276.96331      180.44774      263.83082     -2.0662549      320300       
    320400   322.54109      172.91149      270.01629      8.5920693      320400       
    320500   323.25692      180.98164      278.30196     -1.5195327      320500       
    320600   277.23299      201.32797      284.79224     -5.7474438      320600       
    320700   287.75235      199.01676      285.64801      5.7945808      320700       
    320800   307.47486      177.37384      269.94278      1.9185879      320800       
    320900   267.735        179.43353      260.03831      2.1795102      320900       
    321000   300.49603      172.00518      262.47306     -1.2364268      321000       
    321100   292.74597      189.31514      277.44977      3.0613686      321100       
    321200   265.61193      207.82513      287.79074     -7.5377376      321200       
    321300   298.8962       189.42452      279.41075     -7.8029309      321300       
    321400   284.72941      184.48406      270.20522     -12.235181      321400       
    321500   315.59987      174.88539      269.90046     -7.628329       321500       
    321600   285.28056      183.30264      269.18972     -5.4833718      321600       
    321700   343.34014      185.81719      289.18379     -3.8338089      321700       
    321800   309.37136      199.71721      292.85712     -9.7884446      321800       
    321900   297.07197      186.47164      275.90867     -6.2627827      321900       
    322000   295.71905      178.09126      267.12097     -5.8132739      322000       
    322100   302.84128      178.03903      269.21297     -9.8864985      322100       
    322200   330.98857      173.03386      272.68188      22.736872      322200       
    322300   353.76742      182.33787      288.84373      3.1208326      322300       
    322400   333.53342      192.51259      292.92676      2.273643       322400       
    322500   313.00035      182.20606      276.43851     -1.2076141      322500       
    322600   296.22163      176.54513      265.72615     -3.3584454      322600       
    322700   313.83312      172.34698      266.83015      0.65870309     322700       
    322800   304.60503      184.48298      276.18793     -0.21472397     322800       
    322900   368.24775      180.22142      291.08676      10.483252      322900       
    323000   320.7011       194.90386      291.45472      16.468718      323000       
    323100   255.60349      190.46368      267.41613     -9.1636625      323100       
    323200   317.52815      168.24797      263.84357      6.2044014      323200       
    323300   276.5519       185.94301      269.20222      12.37238       323300       
    323400   320.65412      183.49198      280.02869      5.4450269      323400       
    323500   302.32068      195.04348      286.06069     -11.794815      323500       
    323600   305.08078      188.63902      280.48719     -5.2186199      323600       
    323700   302.40944      169.38684      260.43077      3.206285       323700       
    323800   278.94003      174.21738      258.19558      10.541529      323800       
    323900   284.45152      184.12186      269.75935     -5.2010818      323900       
    324000   306.34171      187.4817       279.70949      4.8751937      324000       
    324100   272.53711      198.11586      280.16638      8.2468431      324100       
    324200   309.02934      185.87613      278.91306     -6.3368122      324200       
    324300   331.75277      173.13538      273.01348      2.5875381      324300       
    324400   262.07254      186.92922      265.82926     -10.749394      324400       
    324500   256.19617      165.8413       242.97219     -2.3535965      324500       
    324600   250.02781      172.76662      248.04045     -0.92940237     324600       
    324700   287.49499      175.78288      262.33664     -2.9958324      324700       
    324800   310.85941      178.78118      272.36908     -5.0642461      324800       
    324900   332.20516      183.37801      283.3923       10.008444      324900       
    325000   319.87714      185.72927      282.03206     -3.6739246      325000       
    325100   328.48234      167.37952      266.27301      4.2483147      325100       
    325200   283.76356      171.13962      256.57        -13.472388      325200       
    325300   250.91902      185.14419      260.68633      2.4076791      325300       
    325400   317.83799      176.40999      272.09887      1.4097388      325400       
    325500   309.05714      185.82946      278.87476      2.450787       325500       
    325600   305.46302      185.22015      277.1834       1.1031161      325600       
    325700   285.53722      188.26083      274.22519      4.8870812      325700       
    325800   290.12001      176.05675      263.4008       12.534179      325800       
    325900   229.85191      176.60167      245.8013      -3.7481485      325900       
    326000   256.49287      175.90675      253.12696      3.3621158      326000       
    326100   294.56426      176.78053      265.46258      1.2371206      326100       
    326200   313.66799      176.88443      271.31789      8.3459223      326200       
    326300   299.41808      184.08946      274.23281      4.8269467      326300       
    326400   330.75234      179.00024      278.57713      9.4279358      326400       
    326500   293.68317      182.85405      271.27083      11.015157      326500       
    326600   230.97265      190.87045      260.4075       3.3108885      326600       
    326700   310.52392      167.43263      260.91952      6.8123407      326700       
    326800   330.67359      181.73406      281.28725     -15.499155      326800       
    326900   322.55599      188.01319      285.12249     -6.5838276      326900       
    327000   287.44378      190.25667      276.79501      3.9609343      327000       
    327100   314.21211      173.79933      268.39659     -0.79931396     327100       
    327200   253.03562      183.53671      259.71607     -4.0915826      327200       
    327300   272.84981      162.91944      245.0641       7.9868414      327300       
    327400   242.34252      168.3949       241.35497      3.778433       327400       
    327500   284.15263      173.64573      259.19324      6.1513982      327500       
    327600   319.93476      173.10536      269.4255      -2.3793089      327600       
    327700   279.70281      192.97828      277.18611     -17.076913      327700       
    327800   314.40718      181.06569      275.72169     -12.467098      327800       
    327900   273.82629      182.96771      265.40635      2.5764033      327900       
    328000   275.3541       170.5253       253.4239      -12.872005      328000       
    328100   270.71389      176.92207      258.42369      9.439615       328100       
    328200   327.48431      180.17869      278.77171     -14.922282      328200       
    328300   293.56476      190.73841      279.11955      5.8156465      328300       
    328400   287.05157      183.64437      270.06463     -1.1710437      328400       
    328500   258.53584      183.9327       261.76797     -7.4355054      328500       
    328600   270.60865      176.36929      257.83922      1.9174573      328600       
    328700   266.50886      189.80258      270.03822     -7.5446645      328700       
    328800   334.10561      182.70317      283.28961      9.5423749      328800       
    328900   304.9846       189.9966       281.81582      5.1044408      328900       
    329000   307.55019      179.23086      271.82248      10.051825      329000       
    329100   285.83608      174.5734       260.62773      0.77195421     329100       
    329200   304.59889      169.41249      261.11559      2.0477087      329200       
    329300   335.22835      173.55888      274.48334     -10.084907      329300       
    329400   363.0336       191.49156      300.78712      10.359093      329400       
    329500   338.3163       190.84489      292.69901     -7.2873415      329500       
    329600   316.53438      179.07667      274.37308      9.2842532      329600       
    329700   291.2104       180.53651      268.20885      5.3487979      329700       
    329800   252.68265      187.03395      263.10705      18.642421      329800       
    329900   289.51336      183.45671      270.61812     -3.3645728      329900       
    330000   358.53937      177.76204      285.70456      4.3052359      330000       
    330100   329.63775      185.71875      284.96009     -17.984744      330100       
    330200   295.46936      185.29483      274.24937     -2.8415719      330200       
    330300   306.78668      178.97798      271.33974      1.2690153      330300       
    330400   266.49311      188.14994      268.38084     -2.2837908      330400       
    330500   279.67439      181.00887      265.20815      7.4201083      330500       
    330600   289.12014      174.36633      261.40937     -1.8380196      330600       
    330700   316.18483      171.84626      267.03744      0.47088949     330700       
    330800   308.62151      186.49883      279.41298      0.16477932     330800       
    330900   331.68998      183.34875      283.20793      2.8618223      330900       
    331000   294.30338      189.15937      277.76288     -10.360312      331000       
    331100   295.92435      170.66364      259.75516      11.597255      331100       
    331200   255.89106      182.04457      259.0836      -3.6217607      331200       
    331300   270.1525       185.86244      267.19505      0.10572731     331300       
    331400   331.12353      180.61732      280.30597     -11.00627       331400    