LAMMPS (29 Sep 2021)
include "system.in.init"
units real
atom_style full
bond_style harmonic
angle_style harmonic
dihedral_style opls
improper_style harmonic
pair_style lj/cut/coul/long 11.0 11.0
pair_modify mix geometric
special_bonds lj/coul 0.0 0.0 0.5
kspace_style pppm 0.0001
read_data "system.data"
Reading data file ...
  orthogonal box = (-25.000000 -25.000000 -25.000000) to (25.000000 25.000000 25.000000)
  1 by 2 by 2 MPI processor grid
  reading atoms ...
  10 atoms
  scanning bonds ...
  3 = max bonds/atom
  scanning angles ...
  3 = max angles/atom
  scanning dihedrals ...
  2 = max dihedrals/atom
  scanning impropers ...
  1 = max impropers/atom
  reading bonds ...
  9 bonds
  reading angles ...
  10 angles
  reading dihedrals ...
  5 dihedrals
  reading impropers ...
  2 impropers
Finding 1-2 1-3 1-4 neighbors ...
  special bond factors lj:    0        0        0.5     
  special bond factors coul:  0        0        0.5     
     3 = max # of 1-2 neighbors
     4 = max # of 1-3 neighbors
     6 = max # of 1-4 neighbors
     9 = max # of special neighbors
  special bonds CPU = 0.000 seconds
  read_data CPU = 0.012 seconds
include "system.in.settings"
pair_coeff 1 1 0 0
pair_coeff 2 2 0.1554 3.165541325
pair_coeff 3 3 0.1554 3.165541325
pair_coeff 4 4 0.1554 3.165541325
pair_coeff 5 5 0.1554 3.165541325
pair_coeff 6 6 0.1554 3.165541325
pair_coeff 7 7 0.1554 3.165541325
pair_coeff 8 8 1.8405E-6 3.302027009
pair_coeff 9 9 1.3298E-6 4.271235724
pair_coeff 10 10 1.8405E-6 3.302027009
pair_coeff 11 11 9.0298E-6 5.264320525
pair_coeff 12 12 9.0298E-6 5.264320525
pair_coeff 13 13 5.0298E-6 5.56669155
pair_coeff 14 14 5.0298E-6 5.561702518
pair_coeff 15 15 9.0298E-6 4.906179241
pair_coeff 16 16 9.0298E-6 4.210120072
pair_coeff 17 17 0.1301 2.350012639
pair_coeff 18 18 0.1 3.334010273
pair_coeff 19 19 0.1 3.831042668
pair_coeff 20 20 0.1 2.871990198
pair_coeff 21 21 0.047 3.816610109
pair_coeff 22 22 0.1001 4.399970589
pair_coeff 23 23 0.1554 3.16557
pair_coeff 24 24 0.0 0.0
pair_coeff 25 25 0.066 3.5
pair_coeff 26 26 0.066 3.5
pair_coeff 27 27 0.066 3.5
pair_coeff 28 28 0.066 3.5
pair_coeff 29 29 0.066 3.5
pair_coeff 30 30 0.03 2.5
pair_coeff 31 31 0.076 3.55
pair_coeff 32 32 0.076 3.55
pair_coeff 33 33 0.076 3.55
pair_coeff 34 34 0.03 2.42
pair_coeff 35 35 0.07 3.55
pair_coeff 36 36 0.03 2.42
pair_coeff 37 37 0.07 3.55
pair_coeff 38 38 0.105 3.75
pair_coeff 39 39 0.21 2.96
pair_coeff 40 40 0.17 3.25
pair_coeff 41 41 0.17 3.25
pair_coeff 42 42 0.17 3.25
pair_coeff 43 43 0.0 0.0
pair_coeff 44 44 0.0 0.0
pair_coeff 45 45 0.105 3.75
pair_coeff 46 46 0.21 2.96
pair_coeff 47 47 0.17 3.0
pair_coeff 48 48 0.0 0.0
pair_coeff 49 49 0.105 3.75
pair_coeff 50 50 0.21 2.96
pair_coeff 51 51 0.066 3.5
pair_coeff 52 52 0.066 3.5
pair_coeff 53 53 0.066 3.5
pair_coeff 54 54 0.066 3.5
pair_coeff 55 55 0.076 3.55
pair_coeff 56 56 0.17 3.25
pair_coeff 57 57 0.066 3.5
pair_coeff 58 58 0.066 3.5
pair_coeff 59 59 0.066 3.5
pair_coeff 60 60 0.066 3.5
pair_coeff 61 61 0.03 2.5
bond_coeff 1 554.1349 1.0
bond_coeff 2 554.1349 1.0
bond_coeff 3 554.1349 1.0
bond_coeff 4 554.1349 1.0
bond_coeff 5 268.0 1.529
bond_coeff 6 340.0 1.09
bond_coeff 7 317.0 1.51
bond_coeff 8 340.0 1.08
bond_coeff 9 549.0 1.34
bond_coeff 10 469.0 1.4
bond_coeff 11 367.0 1.08
bond_coeff 12 317.0 1.51
bond_coeff 13 427.0 1.433
bond_coeff 14 570.0 1.229
bond_coeff 15 317.0 1.522
bond_coeff 16 410.0 1.444
bond_coeff 17 400.0 1.49
bond_coeff 18 490.0 1.335
bond_coeff 19 434.0 1.01
bond_coeff 20 337.0 1.449
bond_coeff 21 450.0 1.364
bond_coeff 22 656.0 1.25
bond_coeff 23 553.0 0.945
bond_coeff 24 367.0 1.471
angle_coeff 1 30.0 109.47
angle_coeff 2 30.0 109.47
angle_coeff 3 30.0 109.47
angle_coeff 4 30.0 109.47
angle_coeff 5 30.0 109.47
angle_coeff 6 30.0 109.47
angle_coeff 7 30.0 109.47
angle_coeff 8 30.0 109.47
angle_coeff 9 30.0 109.47
angle_coeff 10 45.7696 109.47
angle_coeff 11 58.35 112.7
angle_coeff 12 33.0 107.8
angle_coeff 13 37.5 110.7
angle_coeff 14 35.0 109.5
angle_coeff 15 63.0 112.4
angle_coeff 16 70.0 124.0
angle_coeff 17 35.0 120.0
angle_coeff 18 35.0 109.5
angle_coeff 19 63.0 114.0
angle_coeff 20 85.0 119.7
angle_coeff 21 63.0 120.0
angle_coeff 22 35.0 120.0
angle_coeff 23 63.0 111.1
angle_coeff 24 85.0 120.7
angle_coeff 25 85.0 120.0
angle_coeff 26 80.0 120.4
angle_coeff 27 80.0 125.3
angle_coeff 28 80.0 120.4
angle_coeff 29 80.0 122.9
angle_coeff 30 70.0 116.6
angle_coeff 31 70.0 115.5
angle_coeff 32 70.0 115.5
angle_coeff 33 35.0 119.8
angle_coeff 34 35.0 120.0
angle_coeff 35 50.0 121.9
angle_coeff 36 50.0 118.0
angle_coeff 37 38.0 118.4
angle_coeff 38 70.0 108.0
angle_coeff 39 80.0 121.0
angle_coeff 40 35.0 113.0
angle_coeff 41 70.0 117.0
angle_coeff 42 70.0 117.0
angle_coeff 43 70.0 117.0
angle_coeff 44 80.0 126.0
angle_coeff 45 70.0 117.0
angle_coeff 46 70.0 117.0
angle_coeff 47 70.0 117.0
angle_coeff 48 50.0 113.0
angle_coeff 49 80.0 111.2
angle_coeff 50 35.0 109.5
dihedral_coeff 1 1.3 -0.05 0.2 0.0
dihedral_coeff 2 0.0 0.0 0.3 0.0
dihedral_coeff 3 0.0 0.0 0.3 0.0
dihedral_coeff 4 0.0 0.0 0.366 0.0
dihedral_coeff 5 0.0 0.0 0.462 0.0
dihedral_coeff 6 0.205 -0.531 0.0 0.0
dihedral_coeff 7 0.0 0.0 -0.372 0.0
dihedral_coeff 8 0.0 14.0 0.0 0.0
dihedral_coeff 9 0.0 14.0 0.0 0.0
dihedral_coeff 10 0.205 -0.531 0.0 0.0
dihedral_coeff 11 0.0 0.0 -0.372 0.0
dihedral_coeff 12 1.241 3.353 -0.286 0.0
dihedral_coeff 13 0.0 7.25 0.0 0.0
dihedral_coeff 14 0.0 7.25 0.0 0.0
dihedral_coeff 15 0.0 7.25 0.0 0.0
dihedral_coeff 16 -2.06 -0.313 0.315 0.0
dihedral_coeff 17 -1.697 -0.456 0.585 0.0
dihedral_coeff 18 -4.344 -1.714 0.0 0.0
dihedral_coeff 19 0.0 0.0 0.0 0.0
dihedral_coeff 20 0.0 0.546 0.0 0.0
dihedral_coeff 21 2.5 6.0 0.0 0.0
dihedral_coeff 22 0.0 2.1 0.0 0.0
dihedral_coeff 23 0.0 4.9 0.0 0.0
dihedral_coeff 24 0.0 6.089 0.0 0.0
dihedral_coeff 25 0.0 5.0 0.0 0.0
dihedral_coeff 26 2.732 -0.229 0.485 0.0
dihedral_coeff 27 0.0 0.0 0.384 0.0
dihedral_coeff 28 1.438 -0.124 0.264 0.0
dihedral_coeff 29 0.0 0.0 0.302 0.0
improper_coeff 1 15.0 0.0
improper_coeff 2 1.0 0.0


thermo_style custom step temp pe etotal press lx ly lz time
thermo 1000


velocity all create 300.0 134113


fix  fxnvt all nvt temp 300.0 300.0 100.0
timestep 0.001
run  1000
PPPM initialization ...
  using 12-bit tables for long-range coulomb (../kspace.cpp:340)
  G vector (1/distance) = 0.14836662
  grid = 8 8 8
  stencil order = 5
  estimated absolute RMS force accuracy = 0.025991125
  estimated relative force accuracy = 7.82715e-05
  using double precision FFTW3
  3d grid and FFT values/proc = 1053 128
Neighbor list info ...
  update every 1 steps, delay 10 steps, check yes
  max neighbors/atom: 2000, page size: 100000
  master list distance cutoff = 13
  ghost atom cutoff = 13
  binsize = 6.5, bins = 8 8 8
  1 neighbor lists, perpetual/occasional/extra = 1 0 0
  (1) pair lj/cut/coul/long, perpetual
      attributes: half, newton on
      pair build: half/bin/newton
      stencil: half/bin/3d
      bin: standard
Per MPI rank memory allocation (min/avg/max) = 9.000 | 9.210 | 9.649 Mbytes
Step Temp PotEng TotEng Press Lx Ly Lz Time 
       0          300    28.227935    36.276122   -99.274781           50           50           50            0 
    1000    378.14047    26.131799    36.276284   -99.232143           50           50           50            1 
Loop time of 0.0403092 on 4 procs for 1000 steps with 10 atoms

Performance: 2.143 ns/day, 11.197 hours/ns, 24808.202 timesteps/s
98.3% CPU use with 4 MPI tasks x no OpenMP threads

MPI task timing breakdown:
Section |  min time  |  avg time  |  max time  |%varavg| %total
---------------------------------------------------------------
Pair    | 0.000228   | 0.000431   | 0.000719   |   0.0 |  1.07
Bond    | 0.000103   | 0.00058125 | 0.001222   |   0.0 |  1.44
Kspace  | 0.032968   | 0.033599   | 0.034247   |   0.3 | 83.35
Neigh   | 0          | 0          | 0          |   0.0 |  0.00
Comm    | 0.002633   | 0.002885   | 0.003415   |   0.6 |  7.16
Output  | 1.1e-05    | 1.35e-05   | 2.1e-05    |   0.0 |  0.03
Modify  | 0.001326   | 0.001622   | 0.001901   |   0.5 |  4.02
Other   |            | 0.001178   |            |       |  2.92

Nlocal:        2.50000 ave           4 max           1 min
Histogram: 1 0 0 1 0 0 1 0 0 1
Nghost:        10.5000 ave          12 max           9 min
Histogram: 1 0 0 1 0 0 1 0 0 1
Neighs:        11.2500 ave          24 max           2 min
Histogram: 1 0 1 0 1 0 0 0 0 1

Total # of neighbors = 45
Ave neighs/atom = 4.5000000
Ave special neighs/atom = 6.6000000
Neighbor list builds = 0
Dangerous builds = 0
write_data relaxed.data
System init for write_data ...
PPPM initialization ...
  using 12-bit tables for long-range coulomb (../kspace.cpp:340)
  G vector (1/distance) = 0.14836662
  grid = 8 8 8
  stencil order = 5
  estimated absolute RMS force accuracy = 0.025991125
  estimated relative force accuracy = 7.82715e-05
  using double precision FFTW3
  3d grid and FFT values/proc = 1053 128
unfix fxnvt

reset_timestep 0
timestep 1
fix  fxnvt all nvt temp 300.0 300.0 100.0
dump d1 all custom 1000 system.lammpstrj id mol type x y z vx vy vz
run  100000
PPPM initialization ...
  using 12-bit tables for long-range coulomb (../kspace.cpp:340)
  G vector (1/distance) = 0.14836662
  grid = 8 8 8
  stencil order = 5
  estimated absolute RMS force accuracy = 0.025991125
  estimated relative force accuracy = 7.82715e-05
  using double precision FFTW3
  3d grid and FFT values/proc = 1053 128
Per MPI rank memory allocation (min/avg/max) = 10.25 | 10.46 | 10.90 Mbytes
Step Temp PotEng TotEng Press Lx Ly Lz Time 
       0    378.14047    26.131799    36.276284   -99.232143           50           50           50            1 
    1000    205.24221    -23.57797   -18.071878   -20.666194           50           50           50         1001 
    2000     397.7234   -20.586329   -9.9164878   -3.1712834           50           50           50         2001 
    3000    337.05538   -21.567241   -12.524958    5.0615877           50           50           50         3001 
    4000    239.14768   -21.781055   -15.365371     11.06293           50           50           50         4001 
    5000    324.98487   -19.838198   -11.119735    3.3845195           50           50           50         5001 
    6000    175.86753    -23.91448   -19.196431   0.59413078           50           50           50         6001 
    7000     237.5683   -21.283879   -14.910566   0.35154143           50           50           50         7001 
    8000     303.8889   -24.833611   -16.681095    3.7459512           50           50           50         8001 
    9000    212.67702   -24.238859    -18.53331    2.7635783           50           50           50         9001 
   10000    320.12006   -22.953576   -14.365622   0.66329486           50           50           50        10001 
   11000    516.16927   -21.753223   -7.9058002   -18.627329           50           50           50        11001 
   12000    264.06247   -26.041483   -18.957403   -12.092037           50           50           50        12001 
   13000    350.93275   -23.656388   -14.241814   -2.7889183           50           50           50        13001 
   14000    190.40361   -25.055291   -19.947278    5.7575443           50           50           50        14001 
   15000    287.11131   -24.780718   -17.078299   -13.484064           50           50           50        15001 
   16000    453.25091   -21.283449   -9.1239549   -24.337388           50           50           50        16001 
   17000    329.99188   -24.523574   -15.670786   -20.614102           50           50           50        17001 
   18000    285.74339   -26.413079   -18.747358   -10.602385           50           50           50        18001 
   19000    339.25401   -21.000785   -11.899519   -8.1691597           50           50           50        19001 
   20000    366.21619   -18.654551   -8.8299624    25.672684           50           50           50        20001 
   21000    294.26112   -23.586675   -15.692447   -17.514201           50           50           50        21001 
   22000    446.29624   -22.415988   -10.443069    12.984421           50           50           50        22001 
   23000    386.61253    -24.17507   -13.803303    16.891099           50           50           50        23001 
   24000    278.22169   -25.038218   -17.574283   -2.2213159           50           50           50        24001 
   25000     226.2062   -20.192051   -14.123551    22.047211           50           50           50        25001 
   26000    136.35471    -22.41336   -18.755333   -5.5808418           50           50           50        26001 
   27000    369.45725   -26.006187    -16.09465    11.662465           50           50           50        27001 
   28000    330.75089   -20.996449   -12.123299    15.732231           50           50           50        28001 
   29000    375.82482   -24.711596   -14.629234   -2.6770256           50           50           50        29001 
   30000    282.19114   -21.951477   -14.381053   -16.041934           50           50           50        30001 
   31000    232.53722   -18.951198   -12.712854    15.023153           50           50           50        31001 
   32000    393.95121   -20.865473   -10.296829   -14.294002           50           50           50        32001 
   33000    182.96307   -22.094186   -17.185782   -4.0687421           50           50           50        33001 
   34000    331.84581   -20.127227   -11.224703    25.553238           50           50           50        34001 
   35000      313.195   -23.377465   -14.975292   -9.3080221           50           50           50        35001 
   36000    205.67154   -23.172438   -17.654828   -26.089708           50           50           50        36001 
   37000     266.3629   -20.961944    -13.81615   -2.5135481           50           50           50        37001 
   38000    224.87451   -24.651575   -18.618801   -32.208437           50           50           50        38001 
   39000    332.29322   -23.293645   -14.379118   -17.732972           50           50           50        39001 
   40000     345.6263   -20.042721   -10.770504    9.3641216           50           50           50        40001 
   41000    345.28396   -24.457083    -15.19405    3.1124044           50           50           50        41001 
   42000    273.22934   -23.741294   -16.411291   -16.825418           50           50           50        42001 
   43000    349.37625   -19.422113   -10.049295    23.760342           50           50           50        43001 
   44000    265.17201   -21.147265   -14.033419    33.970165           50           50           50        44001 
   45000    238.74551   -25.144146   -18.739251    1.5062875           50           50           50        45001 
   46000    418.29141   -25.071803   -13.850178    -5.865258           50           50           50        46001 
   47000    406.12435   -24.692775   -13.797559    -10.68516           50           50           50        47001 
   48000    293.54484   -24.610986   -16.735973   -21.472009           50           50           50        48001 
   49000    384.10485    -21.75383   -11.449338    15.782122           50           50           50        49001 
   50000    169.75492   -20.911444   -16.357379    12.155652           50           50           50        50001 
   51000     385.3998   -23.411148   -13.071916   -5.8634705           50           50           50        51001 
   52000    258.04954   -22.836029   -15.913259    2.1249029           50           50           50        52001 
   53000     317.8834   -27.522848   -18.994898    15.825602           50           50           50        53001 
   54000    272.52842   -20.021256   -12.710057   -34.493054           50           50           50        54001 
   55000    166.47682     -26.0504   -21.584278   -12.955958           50           50           50        55001 
   56000     253.1504   -18.524492   -11.733152   -11.771578           50           50           50        56001 
   57000    216.19359   -23.987908    -18.18802    -10.28527           50           50           50        57001 
   58000    237.06437   -17.647498   -11.287703    5.3206909           50           50           50        58001 
   59000    233.44507   -23.044995   -16.782296    4.8882335           50           50           50        59001 
   60000    366.60648   -23.530258   -13.695199    -1.747984           50           50           50        60001 
   61000    118.76075   -25.129697   -21.943668     8.793889           50           50           50        61001 
   62000    348.02802   -24.411344   -15.074695    5.9277549           50           50           50        62001 
   63000    246.91263   -23.424192   -16.800195     15.42361           50           50           50        63001 
   64000    304.92162   -23.226831    -15.04661    18.763156           50           50           50        64001 
   65000    300.70203   -24.612055   -16.545034    6.3580699           50           50           50        65001 
   66000    432.04883   -22.616784   -11.026084    12.830228           50           50           50        66001 
   67000    187.23951   -21.999972   -16.976843    2.0737587           50           50           50        67001 
   68000    236.96824   -25.511844   -19.154628    7.0881682           50           50           50        68001 
   69000    292.06655   -22.836182   -15.000828     27.39277           50           50           50        69001 
   70000     231.6963   -25.428967   -19.213183    6.6929503           50           50           50        70001 
   71000    473.94343   -24.296603   -11.581985     8.767316           50           50           50        71001 
   72000    383.87372   -23.593213   -13.294921    19.582484           50           50           50        72001 
   73000    271.74229   -23.983869    -16.69376   -3.6374452           50           50           50        73001 
   74000    487.21533   -22.738192   -9.6675245   -17.477691           50           50           50        74001 
   75000     227.7066   -20.209758   -14.101007   -3.1557948           50           50           50        75001 
   76000    281.61165   -24.595956   -17.041078    9.3003697           50           50           50        76001 
   77000     346.7453   -25.027703   -15.725466   -19.755142           50           50           50        77001 
   78000    207.86442   -24.959336   -19.382897     8.114905           50           50           50        78001 
   79000    423.12824   -16.595981   -5.2445965    19.908057           50           50           50        79001 
   80000    241.03518   -21.908133   -15.441812   0.54527037           50           50           50        80001 
   81000    152.91077   -16.771771   -12.669589   -23.409239           50           50           50        81001 
   82000    217.11943   -25.145705   -19.320979   -2.6034782           50           50           50        82001 
   83000    343.89381   -26.059761   -16.834021   -8.3041669           50           50           50        83001 
   84000    261.33592   -24.695706   -17.684772   -8.0468172           50           50           50        84001 
   85000     199.6724   -18.611569     -13.2549    12.020217           50           50           50        85001 
   86000    218.40803   -25.297883   -19.438587   -20.801922           50           50           50        86001 
   87000    253.20964   -22.173372   -15.380443   -7.5124305           50           50           50        87001 
   88000    418.02231    -21.04557   -9.8311642   -11.108644           50           50           50        88001 
   89000    295.87878    -25.12267   -17.185044    16.921098           50           50           50        89001 
   90000    216.19157   -26.282266   -20.482432  -0.33783687           50           50           50        90001 
   91000    293.46713   -21.487528     -13.6146    12.097459           50           50           50        91001 
   92000    221.65418   -24.442404   -18.496023   -2.6937977           50           50           50        92001 
   93000    305.50632   -22.568249   -14.372342    4.9849077           50           50           50        93001 
   94000      272.324    -20.93514   -13.629425   -10.306173           50           50           50        94001 
   95000    302.33807    -23.83672   -15.725809   -4.5341069           50           50           50        95001 
   96000    200.28866   -24.767588   -19.394386   -21.405609           50           50           50        96001 
   97000     264.1688   -22.027806   -14.940873   -9.6396527           50           50           50        97001 
   98000    142.49988   -26.516949   -22.694063    1.7234188           50           50           50        98001 
   99000    382.96102   -21.016295   -10.742489    4.5289129           50           50           50        99001 
  100000    360.95633   -25.432885   -15.749405   -3.4450742           50           50           50       100001 
Loop time of 4.04449 on 4 procs for 100000 steps with 10 atoms

Performance: 2136.242 ns/day, 0.011 hours/ns, 24725.021 timesteps/s
98.1% CPU use with 4 MPI tasks x no OpenMP threads

MPI task timing breakdown:
Section |  min time  |  avg time  |  max time  |%varavg| %total
---------------------------------------------------------------
Pair    | 0.020131   | 0.043871   | 0.078133   |  10.3 |  1.08
Bond    | 0.024864   | 0.058123   | 0.10486    |  13.7 |  1.44
Kspace  | 3.3161     | 3.3511     | 3.3812     |   1.4 | 82.86
Neigh   | 0.007281   | 0.0073795  | 0.007478   |   0.1 |  0.18
Comm    | 0.25388    | 0.27858    | 0.30798    |   4.6 |  6.89
Output  | 0.00622    | 0.0064882  | 0.007208   |   0.5 |  0.16
Modify  | 0.14211    | 0.18509    | 0.22635    |   7.7 |  4.58
Other   |            | 0.1139     |            |       |  2.82

Nlocal:        2.50000 ave           5 max           1 min
Histogram: 2 0 0 0 0 1 0 0 0 1
Nghost:        7.50000 ave           9 max           5 min
Histogram: 1 0 0 0 0 1 0 0 0 2
Neighs:        11.2500 ave          26 max           1 min
Histogram: 1 0 1 0 1 0 0 0 0 1

Total # of neighbors = 45
Ave neighs/atom = 4.5000000
Ave special neighs/atom = 6.6000000
Neighbor list builds = 733
Dangerous builds = 0
write_data final.data
System init for write_data ...
PPPM initialization ...
  using 12-bit tables for long-range coulomb (../kspace.cpp:340)
  G vector (1/distance) = 0.14836662
  grid = 8 8 8
  stencil order = 5
  estimated absolute RMS force accuracy = 0.025991125
  estimated relative force accuracy = 7.82715e-05
  using double precision FFTW3
  3d grid and FFT values/proc = 1053 128
Total wall time: 0:00:04
