LAMMPS (29 Sep 2021 - Update 3)
include "system.in.init"
units real
atom_style full
bond_style harmonic
angle_style harmonic
dihedral_style opls
improper_style harmonic
pair_style lj/cut/coul/long 11.0 11.0
pair_modify mix geometric
special_bonds lj/coul 0.0 0.0 0.5
kspace_style pppm 0.0001
boundary p p p
read_data "system.data"
Reading data file ...
  orthogonal box = (0.0000000 0.0000000 0.0000000) to (95.940000 95.940000 95.940000)
  2 by 2 by 2 MPI processor grid
  reading atoms ...
  7140 atoms
  scanning bonds ...
  4 = max bonds/atom
  scanning angles ...
  6 = max angles/atom
  scanning dihedrals ...
  20 = max dihedrals/atom
  scanning impropers ...
  2 = max impropers/atom
  reading bonds ...
  8060 bonds
  reading angles ...
  15170 angles
  reading dihedrals ...
  23790 dihedrals
  reading impropers ...
  2470 impropers
Finding 1-2 1-3 1-4 neighbors ...
  special bond factors lj:    0        0        0.5     
  special bond factors coul:  0        0        0.5     
     4 = max # of 1-2 neighbors
     9 = max # of 1-3 neighbors
    22 = max # of 1-4 neighbors
    24 = max # of special neighbors
  special bonds CPU = 0.001 seconds
  read_data CPU = 0.082 seconds
include "system.in.settings"
pair_coeff 1 1 0.0 0.0
pair_coeff 2 2 0.1554 3.16557
pair_coeff 3 3 0.066 3.5
pair_coeff 4 4 0.066 3.5
pair_coeff 5 5 0.066 3.5
pair_coeff 6 6 0.066 3.5
pair_coeff 7 7 0.066 3.5
pair_coeff 8 8 0.03 2.5
pair_coeff 9 9 0.076 3.55
pair_coeff 10 10 0.076 3.55
pair_coeff 11 11 0.076 3.55
pair_coeff 12 12 0.03 2.42
pair_coeff 13 13 0.07 3.55
pair_coeff 14 14 0.07 3.55
pair_coeff 15 15 0.03 2.42
pair_coeff 16 16 0.105 3.75
pair_coeff 17 17 0.21 2.96
pair_coeff 18 18 0.17 3.25
pair_coeff 19 19 0.17 3.25
pair_coeff 20 20 0.17 3.25
pair_coeff 21 21 0.0 0.0
pair_coeff 22 22 0.0 0.0
pair_coeff 23 23 0.105 3.75
pair_coeff 24 24 0.21 2.96
pair_coeff 25 25 0.17 3.0
pair_coeff 26 26 0.0 0.0
pair_coeff 27 27 0.105 3.75
pair_coeff 28 28 0.21 2.96
pair_coeff 29 29 0.066 3.5
pair_coeff 30 30 0.066 3.5
pair_coeff 31 31 0.066 3.5
pair_coeff 32 32 0.066 3.5
pair_coeff 33 33 0.076 3.55
pair_coeff 34 34 0.17 3.25
pair_coeff 35 35 0.066 3.5
pair_coeff 36 36 0.066 3.5
pair_coeff 37 37 0.066 3.5
pair_coeff 38 38 0.066 3.5
pair_coeff 39 39 0.03 2.5
pair_coeff 40 40 0.07 3.55
pair_coeff 41 41 0.17 3.07
pair_coeff 42 42 0.0 0.0
pair_coeff 43 43 0.105 3.75
pair_coeff 44 44 0.21 2.96
pair_coeff 45 45 0.14 2.9
pair_coeff 46 46 0.066 3.5
pair_coeff 47 47 0.066 3.5
pair_coeff 48 48 0.066 3.5
pair_coeff 49 49 0.066 3.5
pair_coeff 50 50 0.03 2.5
pair_coeff 51 51 0.07 3.55
pair_coeff 52 52 0.17 3.12
pair_coeff 53 53 0.0 0.0
pair_coeff 54 54 0.03 2.5
pair_coeff 55 55 0.066 3.5
pair_coeff 56 56 0.066 3.5
pair_coeff 57 57 0.066 3.5
pair_coeff 58 58 0.17 3.25
pair_coeff 59 59 0.07 3.55
pair_coeff 60 60 0.07 3.55
pair_coeff 61 61 0.25 3.55
pair_coeff 62 62 0.07 3.55
pair_coeff 63 63 0.17 3.3
pair_coeff 64 64 0.066 3.5
pair_coeff 65 65 0.0 0.0
pair_coeff 66 66 0.066 3.5
pair_coeff 67 67 0.015 2.5
pair_coeff 68 68 0.0005 4.07
pair_coeff 69 69 0.71 4.02
bond_coeff 1 350.0 1.51
bond_coeff 2 570.0 1.229
bond_coeff 3 450.0 1.364
bond_coeff 4 317.0 1.522
bond_coeff 5 214.0 1.327
bond_coeff 6 300.0 1.79
bond_coeff 7 490.0 1.335
bond_coeff 8 317.0 1.522
bond_coeff 9 340.0 1.09
bond_coeff 10 410.0 1.444
bond_coeff 11 400.0 1.49
bond_coeff 12 656.0 1.25
bond_coeff 13 457.0 1.358
bond_coeff 14 553.0 0.945
bond_coeff 15 320.0 1.41
bond_coeff 16 250.0 1.47
bond_coeff 17 400.0 1.38
bond_coeff 18 320.0 1.45
bond_coeff 19 450.0 1.37
bond_coeff 20 450.0 1.364
bond_coeff 21 553.0 0.945
bond_coeff 22 268.0 1.529
bond_coeff 23 222.0 1.81
bond_coeff 24 320.0 1.41
bond_coeff 25 245.0 1.781
bond_coeff 26 337.0 1.449
bond_coeff 27 382.0 1.448
bond_coeff 28 340.0 1.09
bond_coeff 29 317.0 1.51
bond_coeff 30 317.0 1.51
bond_coeff 31 367.0 1.471
bond_coeff 32 337.0 1.449
bond_coeff 33 166.0 2.038
bond_coeff 34 250.0 1.73
bond_coeff 35 250.0 1.76
bond_coeff 36 250.0 1.76
bond_coeff 37 250.0 1.47
bond_coeff 38 200.0 1.69
bond_coeff 39 320.0 1.45
bond_coeff 40 320.0 1.45
bond_coeff 41 450.0 1.37
bond_coeff 42 450.0 1.364
bond_coeff 43 300.0 1.725
bond_coeff 44 300.0 1.725
bond_coeff 45 434.0 1.01
bond_coeff 46 427.0 1.381
bond_coeff 47 600.0 1.0
bond_coeff 48 350.0 1.445
bond_coeff 49 434.0 1.01
bond_coeff 50 481.0 1.34
bond_coeff 51 434.0 1.01
bond_coeff 52 434.0 1.01
bond_coeff 53 340.0 1.08
bond_coeff 54 549.0 1.34
bond_coeff 55 427.0 1.433
bond_coeff 56 469.0 1.4
bond_coeff 57 367.0 1.08
bond_coeff 58 400.0 1.45
bond_coeff 59 483.0 1.339
bond_coeff 60 500.0 1.32
angle_coeff 1 80.0 121.4
angle_coeff 2 80.0 126.0
angle_coeff 3 80.0 121.0
angle_coeff 4 70.0 108.0
angle_coeff 5 70.0 116.0
angle_coeff 6 80.0 117.2
angle_coeff 7 80.0 120.4
angle_coeff 8 81.0 111.4
angle_coeff 9 83.0 123.4
angle_coeff 10 75.0 109.0
angle_coeff 11 75.0 119.0
angle_coeff 12 70.0 114.2
angle_coeff 13 70.0 116.6
angle_coeff 14 70.0 116.6
angle_coeff 15 80.0 122.9
angle_coeff 16 81.0 111.4
angle_coeff 17 70.0 116.0
angle_coeff 18 80.0 120.4
angle_coeff 19 35.0 115.0
angle_coeff 20 35.0 115.0
angle_coeff 21 35.0 123.0
angle_coeff 22 40.0 114.0
angle_coeff 23 40.0 115.0
angle_coeff 24 40.0 115.0
angle_coeff 25 70.0 115.5
angle_coeff 26 80.0 125.3
angle_coeff 27 35.0 115.0
angle_coeff 28 70.0 115.5
angle_coeff 29 70.0 116.0
angle_coeff 30 70.0 120.0
angle_coeff 31 80.0 120.4
angle_coeff 32 81.0 111.4
angle_coeff 33 85.0 120.0
angle_coeff 34 70.0 117.0
angle_coeff 35 70.0 117.0
angle_coeff 36 80.0 126.0
angle_coeff 37 80.0 126.0
angle_coeff 38 35.0 122.0
angle_coeff 39 80.0 122.5
angle_coeff 40 35.0 113.0
angle_coeff 41 55.0 108.5
angle_coeff 42 49.0 105.4
angle_coeff 43 35.0 109.0
angle_coeff 44 35.0 113.0
angle_coeff 45 63.0 111.1
angle_coeff 46 50.0 109.5
angle_coeff 47 58.35 112.7
angle_coeff 48 63.0 111.1
angle_coeff 49 50.0 114.7
angle_coeff 50 50.0 109.5
angle_coeff 51 50.0 109.5
angle_coeff 52 69.0 109.8
angle_coeff 53 69.0 109.8
angle_coeff 54 78.0 111.7
angle_coeff 55 50.0 109.5
angle_coeff 56 63.0 110.1
angle_coeff 57 80.0 109.7
angle_coeff 58 50.0 114.7
angle_coeff 59 56.2 109.47
angle_coeff 60 80.0 111.2
angle_coeff 61 33.0 107.8
angle_coeff 62 35.0 109.5
angle_coeff 63 35.0 109.5
angle_coeff 64 35.0 109.5
angle_coeff 65 35.0 109.5
angle_coeff 66 35.0 109.5
angle_coeff 67 35.0 109.5
angle_coeff 68 37.5 110.7
angle_coeff 69 51.0 107.6
angle_coeff 70 35.0 109.5
angle_coeff 71 63.0 111.1
angle_coeff 72 63.0 112.4
angle_coeff 73 35.0 109.5
angle_coeff 74 40.0 109.5
angle_coeff 75 40.0 109.5
angle_coeff 76 50.0 109.5
angle_coeff 77 50.0 109.5
angle_coeff 78 50.0 114.7
angle_coeff 79 63.0 112.0
angle_coeff 80 63.0 114.0
angle_coeff 81 80.0 111.2
angle_coeff 82 35.0 109.5
angle_coeff 83 80.0 111.2
angle_coeff 84 80.0 111.2
angle_coeff 85 35.0 109.5
angle_coeff 86 63.0 110.1
angle_coeff 87 65.0 109.0
angle_coeff 88 62.0 98.9
angle_coeff 89 68.0 103.7
angle_coeff 90 62.0 104.2
angle_coeff 91 62.0 104.2
angle_coeff 92 60.0 109.5
angle_coeff 93 83.0 116.9
angle_coeff 94 75.0 111.0
angle_coeff 95 75.0 111.0
angle_coeff 96 75.0 111.0
angle_coeff 97 75.0 111.0
angle_coeff 98 83.0 116.9
angle_coeff 99 70.0 126.4
angle_coeff 100 46.0 115.7
angle_coeff 101 50.0 118.0
angle_coeff 102 50.0 121.9
angle_coeff 103 70.0 112.0
angle_coeff 104 70.0 108.6
angle_coeff 105 35.0 110.2
angle_coeff 106 35.0 119.8
angle_coeff 107 35.0 120.0
angle_coeff 108 38.0 118.4
angle_coeff 109 35.0 119.8
angle_coeff 110 50.0 118.0
angle_coeff 111 50.0 121.9
angle_coeff 112 70.0 118.0
angle_coeff 113 75.0 109.47
angle_coeff 114 51.8 107.2
angle_coeff 115 63.0 111.1
angle_coeff 116 35.0 109.5
angle_coeff 117 43.6 106.4
angle_coeff 118 35.0 116.0
angle_coeff 119 50.0 116.0
angle_coeff 120 50.0 116.0
angle_coeff 121 63.0 112.0
angle_coeff 122 70.0 119.7
angle_coeff 123 70.0 130.0
angle_coeff 124 35.0 114.5
angle_coeff 125 35.0 117.0
angle_coeff 126 35.0 117.0
angle_coeff 127 35.0 119.7
angle_coeff 128 60.0 114.0
angle_coeff 129 35.0 120.0
angle_coeff 130 70.0 123.0
angle_coeff 131 70.0 123.0
angle_coeff 132 70.0 124.0
angle_coeff 133 75.0 121.5
angle_coeff 134 85.0 119.4
angle_coeff 135 85.0 120.7
angle_coeff 136 35.0 123.3
angle_coeff 137 85.0 117.0
angle_coeff 138 85.0 119.7
angle_coeff 139 70.0 119.7
angle_coeff 140 63.0 120.0
angle_coeff 141 70.0 120.0
angle_coeff 142 70.0 120.0
angle_coeff 143 70.0 120.0
angle_coeff 144 70.0 120.0
angle_coeff 145 70.0 120.0
angle_coeff 146 70.0 124.0
angle_coeff 147 75.0 120.0
angle_coeff 148 85.0 119.4
angle_coeff 149 85.0 120.0
angle_coeff 150 35.0 119.1
angle_coeff 151 35.0 120.0
angle_coeff 152 35.0 120.0
angle_coeff 153 70.0 120.0
angle_coeff 154 35.0 116.0
angle_coeff 155 70.0 116.0
angle_coeff 156 70.0 116.0
angle_coeff 157 70.0 120.0
angle_coeff 158 70.0 121.5
angle_coeff 159 70.0 124.0
angle_coeff 160 75.0 120.0
angle_coeff 161 50.0 113.0
angle_coeff 162 43.6 109.5
angle_coeff 163 55.0 114.0
angle_coeff 164 70.0 120.5
angle_coeff 165 35.0 113.0
angle_coeff 166 50.0 118.0
angle_coeff 167 70.0 117.0
angle_coeff 168 70.0 120.5
angle_coeff 169 70.0 117.0
angle_coeff 170 70.0 117.0
dihedral_coeff 1 1.6 3.2 0.0 0.0
dihedral_coeff 2 0.0 0.5 0.0 0.0
dihedral_coeff 3 0.0 0.0 0.0 0.0
dihedral_coeff 4 0.0 0.0 0.0 0.0
dihedral_coeff 5 0.7 -1.5 0.0 0.0
dihedral_coeff 6 -0.5 0.2 0.0 0.0
dihedral_coeff 7 0.8 -0.76 0.0 0.0
dihedral_coeff 8 -0.9 0.3 0.0 0.0
dihedral_coeff 9 0.0 0.0 0.3 0.0
dihedral_coeff 10 3.0 5.5 0.0 0.0
dihedral_coeff 11 0.0 5.0 0.0 0.0
dihedral_coeff 12 1.5 5.5 0.0 0.0
dihedral_coeff 13 -2.0 5.0 0.0 0.0
dihedral_coeff 14 1.5 5.5 0.0 0.0
dihedral_coeff 15 4.0 5.0 0.0 0.0
dihedral_coeff 16 0.0 0.0 0.085 0.0
dihedral_coeff 17 0.0 0.0 0.0 0.0
dihedral_coeff 18 0.0 0.0 0.0 0.0
dihedral_coeff 19 -0.65 0.0 0.0 0.0
dihedral_coeff 20 0.0 0.82 0.0 0.0
dihedral_coeff 21 0.0 0.0 0.0 0.0
dihedral_coeff 22 0.0 0.0 0.0 0.0
dihedral_coeff 23 0.0 0.546 0.0 0.0
dihedral_coeff 24 0.0 1.412 0.0 0.0
dihedral_coeff 25 5.26 0.82 0.0 0.0
dihedral_coeff 26 0.0 0.0 0.0 0.0
dihedral_coeff 27 1.454 -0.144 -0.775 0.0
dihedral_coeff 28 0.0 0.0 0.275 0.0
dihedral_coeff 29 0.0 0.0 -0.553 0.0
dihedral_coeff 30 0.0 0.0 0.132 0.0
dihedral_coeff 31 0.0 0.0 0.0 0.0
dihedral_coeff 32 0.0 0.0 0.36 0.0
dihedral_coeff 33 1.173 0.189 -1.2 0.0
dihedral_coeff 34 0.65 0.0 0.0 0.0
dihedral_coeff 35 1.816 1.222 1.581 0.0
dihedral_coeff 36 0.0 0.0 0.0 0.0
dihedral_coeff 37 0.0 0.0 0.0 0.0
dihedral_coeff 38 0.0 0.0 0.36 0.0
dihedral_coeff 39 0.0 0.0 0.275 0.0
dihedral_coeff 40 0.0 0.82 0.0 0.0
dihedral_coeff 41 0.0 0.82 0.0 0.0
dihedral_coeff 42 0.0 0.0 0.0 0.0
dihedral_coeff 43 0.0 5.124 0.0 0.0
dihedral_coeff 44 0.0 5.0 0.0 0.0
dihedral_coeff 45 4.669 5.124 0.0 0.0
dihedral_coeff 46 1.5 5.0 0.0 0.0
dihedral_coeff 47 -2.0 5.0 0.0 0.0
dihedral_coeff 48 4.669 5.124 0.0 0.0
dihedral_coeff 49 4.0 5.0 0.0 0.0
dihedral_coeff 50 0.4 4.9 0.0 0.0
dihedral_coeff 51 0.0 4.9 0.0 0.0
dihedral_coeff 52 0.0 6.603 0.0 0.0
dihedral_coeff 53 0.0 6.089 0.0 0.0
dihedral_coeff 54 0.0 4.9 0.0 0.0
dihedral_coeff 55 0.0 6.089 0.0 0.0
dihedral_coeff 56 0.0 6.089 0.0 0.0
dihedral_coeff 57 2.3 6.089 0.0 0.0
dihedral_coeff 58 0.0 4.9 0.0 0.0
dihedral_coeff 59 4.542 6.603 1.045 0.0
dihedral_coeff 60 2.3 6.089 0.0 0.0
dihedral_coeff 61 0.0 4.9 0.0 0.0
dihedral_coeff 62 2.3 6.089 0.0 0.0
dihedral_coeff 63 2.3 6.089 0.0 0.0
dihedral_coeff 64 0.0 4.9 0.0 0.0
dihedral_coeff 65 2.3 6.089 0.0 0.0
dihedral_coeff 66 4.6 0.0 0.0 0.0
dihedral_coeff 67 0.0 4.9 0.0 0.0
dihedral_coeff 68 2.3 6.089 0.0 0.0
dihedral_coeff 69 0.0 4.9 0.0 0.0
dihedral_coeff 70 0.0 4.9 0.0 0.0
dihedral_coeff 71 0.0 4.9 0.0 0.0
dihedral_coeff 72 2.3 6.089 0.0 0.0
dihedral_coeff 73 0.9 0.23 -0.505 0.0
dihedral_coeff 74 0.0 0.0 0.0 0.0
dihedral_coeff 75 2.5 6.0 0.0 0.0
dihedral_coeff 76 3.2 -3.0 0.0 0.0
dihedral_coeff 77 0.0 0.0 0.0 0.0
dihedral_coeff 78 2.0 0.0 0.0 0.0
dihedral_coeff 79 0.0 2.1 0.0 0.0
dihedral_coeff 80 0.0 2.1 0.0 0.0
dihedral_coeff 81 0.0 0.2 0.0 0.0
dihedral_coeff 82 0.0 2.1 0.0 0.0
dihedral_coeff 83 0.0 1.1 0.0 0.0
dihedral_coeff 84 0.0 0.2 0.0 0.0
dihedral_coeff 85 0.0 14.0 0.0 0.0
dihedral_coeff 86 0.0 14.0 0.0 0.0
dihedral_coeff 87 0.0 14.0 0.0 0.0
dihedral_coeff 88 0.0 14.0 0.0 0.0
dihedral_coeff 89 -0.356 -0.174 0.492 0.0
dihedral_coeff 90 0.0 0.0 0.352 0.0
dihedral_coeff 91 -0.9 0.0 0.0 0.0
dihedral_coeff 92 -0.9 0.0 0.0 0.0
dihedral_coeff 93 0.0 0.0 0.3 0.0
dihedral_coeff 94 0.0 0.0 0.3 0.0
dihedral_coeff 95 5.519 -6.7 0.581 0.0
dihedral_coeff 96 2.722 -5.154 0.0 0.0
dihedral_coeff 97 0.0 1.682 0.0 0.0
dihedral_coeff 98 0.0 1.682 0.0 0.0
dihedral_coeff 99 3.0 3.0 0.0 0.0
dihedral_coeff 100 -4.344 -1.714 0.0 0.0
dihedral_coeff 101 1.711 -0.5 0.663 0.0
dihedral_coeff 102 1.428 0.086 0.029 0.0
dihedral_coeff 103 -0.55 0.0 1.0 0.0
dihedral_coeff 104 -6.18 0.0 0.0 0.0
dihedral_coeff 105 -2.06 -0.313 0.315 0.0
dihedral_coeff 106 -4.344 -1.714 0.0 0.0
dihedral_coeff 107 -9.0 2.0 0.8 0.0
dihedral_coeff 108 0.0 0.0 -0.1 0.0
dihedral_coeff 109 -1.697 -0.456 0.585 0.0
dihedral_coeff 110 9.508 0.0 0.0 0.0
dihedral_coeff 111 -1.552 0.0 0.0 0.0
dihedral_coeff 112 4.319 0.0 0.0 0.0
dihedral_coeff 113 8.0 0.0 0.0 0.0
dihedral_coeff 114 6.28 -1.467 2.03 0.0
dihedral_coeff 115 0.0 0.0 0.468 0.0
dihedral_coeff 116 1.3 -0.05 0.2 0.0
dihedral_coeff 117 2.619 -0.62 0.258 0.0
dihedral_coeff 118 0.0 0.0 0.4 0.0
dihedral_coeff 119 2.392 -0.674 0.55 0.0
dihedral_coeff 120 0.845 -0.962 0.713 0.0
dihedral_coeff 121 0.0 0.0 0.3 0.0
dihedral_coeff 122 2.732 -0.229 0.485 0.0
dihedral_coeff 123 0.0 0.0 0.452 0.0
dihedral_coeff 124 -0.55 0.0 0.0 0.0
dihedral_coeff 125 0.0 0.0 0.468 0.0
dihedral_coeff 126 -0.25 0.0 0.0 0.0
dihedral_coeff 127 2.0 0.0 0.0 0.0
dihedral_coeff 128 0.0 0.0 0.4 0.0
dihedral_coeff 129 11.035 -0.968 0.27 0.0
dihedral_coeff 130 -1.013 -0.709 0.473 0.0
dihedral_coeff 131 -0.8 0.0 0.0 0.0
dihedral_coeff 132 0.0 0.0 0.464 0.0
dihedral_coeff 133 0.845 -0.962 0.713 0.0
dihedral_coeff 134 0.0 0.0 0.3 0.0
dihedral_coeff 135 0.0 0.0 0.366 0.0
dihedral_coeff 136 0.0 0.0 0.462 0.0
dihedral_coeff 137 0.0 0.0 0.384 0.0
dihedral_coeff 138 1.0 0.0 0.0 0.0
dihedral_coeff 139 0.925 -0.576 0.677 0.0
dihedral_coeff 140 1.941 -0.836 0.935 0.0
dihedral_coeff 141 0.0 0.0 0.647 0.0
dihedral_coeff 142 0.0 0.0 0.558 0.0
dihedral_coeff 143 0.0 0.0 0.647 0.0
dihedral_coeff 144 -0.521 -2.018 1.996 0.0
dihedral_coeff 145 -0.5 -1.5 1.0 0.0
dihedral_coeff 146 -1.22 -0.126 0.422 0.0
dihedral_coeff 147 0.65 -0.25 0.67 0.0
dihedral_coeff 148 0.0 0.0 0.76 0.0
dihedral_coeff 149 0.0 0.0 0.198 0.0
dihedral_coeff 150 0.0 0.0 0.76 0.0
dihedral_coeff 151 0.0 0.0 0.76 0.0
dihedral_coeff 152 0.0 0.0 0.0 0.0
dihedral_coeff 153 -2.365 0.912 -0.85 0.0
dihedral_coeff 154 -1.737 1.251 -3.501 0.0
dihedral_coeff 155 0.0 0.0 0.0 0.0
dihedral_coeff 156 0.0 0.462 0.0 0.0
dihedral_coeff 157 4.753 -0.734 0.0 0.0
dihedral_coeff 158 0.0 0.0 0.0 0.0
dihedral_coeff 159 0.0 0.0 0.0 0.0
dihedral_coeff 160 0.0 0.0 0.0 0.0
dihedral_coeff 161 0.0 0.0 0.0 0.0
dihedral_coeff 162 0.0 0.0 0.0 0.0
dihedral_coeff 163 0.416 -0.128 0.695 0.0
dihedral_coeff 164 -0.19 -0.417 0.418 0.0
dihedral_coeff 165 0.0 0.0 0.56 0.0
dihedral_coeff 166 0.0 0.0 0.4 0.0
dihedral_coeff 167 0.0 0.0 0.56 0.0
dihedral_coeff 168 1.711 -0.5 0.663 0.0
dihedral_coeff 169 0.0 0.0 0.468 0.0
dihedral_coeff 170 0.5 0.0 0.0 0.0
dihedral_coeff 171 2.817 -0.169 0.543 0.0
dihedral_coeff 172 0.346 0.405 -0.904 0.0
dihedral_coeff 173 0.0 0.0 0.3 0.0
dihedral_coeff 174 0.0 0.0 0.318 0.0
dihedral_coeff 175 0.0 0.0 -0.372 0.0
dihedral_coeff 176 0.0 -8.0 0.0 0.0
dihedral_coeff 177 0.0 -8.0 0.0 0.0
dihedral_coeff 178 0.0 0.0 0.0 0.0
dihedral_coeff 179 0.0 0.0 0.0 0.0
dihedral_coeff 180 -0.5 0.5 -0.5 0.0
dihedral_coeff 181 0.0 -0.4 0.0 0.0
dihedral_coeff 182 0.0 0.0 0.0 0.0
dihedral_coeff 183 1.438 -0.124 0.264 0.0
dihedral_coeff 184 0.0 0.0 0.347 0.0
dihedral_coeff 185 0.0 0.0 0.302 0.0
dihedral_coeff 186 0.0 0.0 0.261 0.0
dihedral_coeff 187 0.0 0.0 0.462 0.0
dihedral_coeff 188 0.0 -7.414 1.705 0.0
dihedral_coeff 189 0.0 0.6 0.0 0.0
dihedral_coeff 190 1.6 5.1 0.0 0.0
dihedral_coeff 191 0.0 0.0 0.3 0.0
dihedral_coeff 192 0.0 0.0 0.3 0.0
dihedral_coeff 193 0.65 -0.25 0.67 0.0
dihedral_coeff 194 0.0 0.0 0.76 0.0
dihedral_coeff 195 -3.5 3.0 0.0 0.0
dihedral_coeff 196 0.0 2.5 0.0 0.0
dihedral_coeff 197 0.0 3.0 0.0 0.0
dihedral_coeff 198 0.4 5.5 0.0 0.0
dihedral_coeff 199 3.0 3.0 0.0 0.0
dihedral_coeff 200 0.0 2.1 0.0 0.0
dihedral_coeff 201 0.0 2.1 0.0 0.0
dihedral_coeff 202 0.0 2.1 0.0 0.0
dihedral_coeff 203 0.0 2.1 0.0 0.0
dihedral_coeff 204 0.0 0.0 0.3 0.0
dihedral_coeff 205 0.0 0.0 0.3 0.0
dihedral_coeff 206 0.0 0.0 0.3 0.0
dihedral_coeff 207 -7.582 3.431 3.198 0.0
dihedral_coeff 208 0.0 2.03 0.0 0.0
dihedral_coeff 209 0.0 -8.0 0.0 0.0
dihedral_coeff 210 0.0 -8.0 0.0 0.0
dihedral_coeff 211 0.0 14.0 0.0 0.0
dihedral_coeff 212 0.0 14.0 0.0 0.0
dihedral_coeff 213 0.0 14.0 0.0 0.0
dihedral_coeff 214 0.0 14.0 0.0 0.0
dihedral_coeff 215 0.0 14.0 0.0 0.0
dihedral_coeff 216 0.0 14.0 0.0 0.0
dihedral_coeff 217 0.0 14.0 0.0 0.0
dihedral_coeff 218 0.0 14.0 0.0 0.0
dihedral_coeff 219 0.0 14.0 0.0 0.0
dihedral_coeff 220 -1.6 14.0 0.0 0.0
dihedral_coeff 221 0.0 14.0 0.0 0.0
dihedral_coeff 222 0.0 14.0 0.0 0.0
dihedral_coeff 223 0.0 14.0 0.0 0.0
dihedral_coeff 224 0.205 -0.531 0.0 0.0
dihedral_coeff 225 0.0 0.0 -0.372 0.0
dihedral_coeff 226 0.0 0.0 -0.372 0.0
dihedral_coeff 227 1.241 3.353 -0.286 0.0
dihedral_coeff 228 0.0 7.25 0.0 0.0
dihedral_coeff 229 0.0 7.25 0.0 0.0
dihedral_coeff 230 0.0 7.25 0.0 0.0
dihedral_coeff 231 0.0 7.25 0.0 0.0
dihedral_coeff 232 0.0 7.25 0.0 0.0
dihedral_coeff 233 0.0 7.25 0.0 0.0
dihedral_coeff 234 0.0 7.25 0.0 0.0
dihedral_coeff 235 0.0 7.25 0.0 0.0
dihedral_coeff 236 0.0 7.25 0.0 0.0
dihedral_coeff 237 0.0 7.25 0.0 0.0
dihedral_coeff 238 0.0 7.25 0.0 0.0
dihedral_coeff 239 0.0 7.25 0.0 0.0
dihedral_coeff 240 0.0 7.25 0.0 0.0
dihedral_coeff 241 0.0 7.25 0.0 0.0
dihedral_coeff 242 0.0 0.0 0.0 0.0
dihedral_coeff 243 0.0 7.25 0.0 0.0
dihedral_coeff 244 0.0 7.25 0.0 0.0
dihedral_coeff 245 0.0 7.25 0.0 0.0
dihedral_coeff 246 0.0 7.25 0.0 0.0
dihedral_coeff 247 0.0 7.25 0.0 0.0
dihedral_coeff 248 0.0 7.25 0.0 0.0
dihedral_coeff 249 1.816 1.222 1.581 0.0
dihedral_coeff 250 0.0 0.82 0.0 0.0
dihedral_coeff 251 1.0 0.0 0.0 0.0
dihedral_coeff 252 6.28 -1.467 2.03 0.0
dihedral_coeff 253 1.428 0.086 0.029 0.0
dihedral_coeff 254 1.438 -0.124 0.264 0.0
dihedral_coeff 255 1.3 -0.05 0.2 0.0
dihedral_coeff 256 1.3 -0.05 0.2 0.0
improper_coeff 1 10.5 0.000000
improper_coeff 2 10.5 0.000000
improper_coeff 3 1.0 0.000000
improper_coeff 4 15.0 0.000000
improper_coeff 5 1.1 0.000000

thermo_style custom step temp pe evdwl ecoul epair ebond eangle edihed eimp press lx density

variable T equal 300
variable P equal 100000
velocity all create $T 17236978
velocity all create 300 17236978

#minimize 0 1e-5 10 100

timestep 0.001
fix  fxnvt all nvt temp $T $T 100
fix  fxnvt all nvt temp 300 $T 100
fix  fxnvt all nvt temp 300 300 100
thermo 100
run  3000
PPPM initialization ...
  using 12-bit tables for long-range coulomb (../kspace.cpp:340)
  G vector (1/distance) = 0.16229088
  grid = 18 18 18
  stencil order = 5
  estimated absolute RMS force accuracy = 0.027306167
  estimated relative force accuracy = 8.2231711e-05
  using double precision KISS FFT
  3d grid and FFT values/proc = 2744 972
Neighbor list info ...
  update every 1 steps, delay 10 steps, check yes
  max neighbors/atom: 2000, page size: 100000
  master list distance cutoff = 13
  ghost atom cutoff = 13
  binsize = 6.5, bins = 15 15 15
  1 neighbor lists, perpetual/occasional/extra = 1 0 0
  (1) pair lj/cut/coul/long, perpetual
      attributes: half, newton on
      pair build: half/bin/newton
      stencil: half/bin/3d
      bin: standard
Per MPI rank memory allocation (min/avg/max) = 17.16 | 17.23 | 17.61 Mbytes
Step Temp PotEng E_vdwl E_coul E_pair E_bond E_angle E_dihed E_impro Press Lx Density 
       0          300    33278.702    5141.6132     5106.733    4646.8028    12388.964    5461.8158    10554.405    226.71468   -4116.8509        95.94  0.099992376 
     100    300.36346    33270.975    5141.6566     5106.698    4646.8038    12385.306    5458.9463     10553.28     226.6389    -4113.301        95.94  0.099992376 
     200     301.2068    33253.083     5140.958    5106.7639    4646.1607    12376.799    5454.2219    10549.447     226.4548   -4104.8222        95.94  0.099992376 
     300    302.53058     33225.03    5139.5327    5106.9354    4644.8936    12363.418    5447.6553    10542.901    226.16256    -4091.429        95.94  0.099992376 
     400    304.33598    33186.535    5137.3789    5106.9635    4642.7517    12345.115    5439.2657     10533.64    225.76245    -4073.201        95.94  0.099992376 
     500    306.62478    33137.854    5134.5093    5107.1424    4640.0418    12321.822    5429.0787    10521.656    225.25484   -4050.1082        95.94  0.099992376 
     600     309.3993    33078.797    5130.9418    5107.3265    4636.6367    12293.452     5417.126    10506.942    224.64014   -4022.2215        95.94  0.099992376 
     700    312.66231    33009.403    5126.6937    5107.6127    4632.6502    12259.901    5403.4454    10489.488     223.9189   -3989.5691        95.94  0.099992376 
     800     316.4169    32929.441    5121.7862    5107.8347    4627.9376    12221.047    5388.0806    10469.284    223.09172   -3952.2425        95.94  0.099992376 
     900     320.6664    32839.009    5116.2431    5108.1624    4622.6926    12176.761    5371.0814    10446.315    222.15929   -3910.2704        95.94  0.099992376 
    1000     325.4142    32737.988    5110.0921    5108.5456    4616.8927    12126.902    5352.5028    10420.568    221.12239   -3863.7359        95.94  0.099992376 
    1100    330.66365    32626.357    5103.3608    5109.0348    4610.6163    12071.326    5332.4055    10392.028    219.98189   -3812.7098        95.94  0.099992376 
    1200    336.41787    32503.798    5096.0824    5109.3747    4603.6413    12009.885    5310.8553    10360.677    218.73872   -3757.3356        95.94  0.099992376 
    1300    342.67958     32370.53    5088.2882    5109.8447    4596.2785    11942.438    5287.9227    10326.497    217.39391   -3697.6527        95.94  0.099992376 
    1400    349.45098    32226.432    5080.0167    5110.3636    4588.4854    11868.846    5263.6833    10289.469    215.94858   -3633.7849        95.94  0.099992376 
    1500     356.7335    32071.415    5071.3031    5110.8727    4580.2386    11788.984    5238.2166    10249.572    214.40392    -3565.861        95.94  0.099992376 
    1600     364.5277    31905.577    5062.1821     5111.484    4571.6849    11702.739    5211.6065    10206.785    212.76119   -3493.9825        95.94  0.099992376 
    1700    372.83308     31728.97    5052.6963     5112.232    4562.9016     11610.02    5183.9405    10161.086    211.02177   -3418.2757        95.94  0.099992376 
    1800    381.64794     31541.43    5042.8842    5112.9142    4553.7248    11510.755    5155.3094    10112.454    209.18708   -3338.9264        95.94  0.099992376 
    1900    390.96917    31343.112    5032.7823    5113.6207    4544.2812      11404.9    5125.8071    10060.864    207.25865   -3256.0683        95.94  0.099992376 
    2000     400.7922    31134.045    5022.4342    5114.2763    4534.5393    11292.442    5095.5304    10006.295    205.23807   -3169.8776        95.94  0.099992376 
    2100     411.1108    30914.513    5011.8719    5115.0356    4524.6861    11173.398    5064.5782     9948.724    203.12704   -3080.4925        95.94  0.099992376 
    2200    421.91702    30684.581    5001.1363    5115.7901     4514.654    11047.821    5033.0512    9888.1276    200.92731   -2988.1141        95.94  0.099992376 
    2300    433.20106    30444.514    4990.2578    5116.6006    4504.5343    10915.802    5001.0519    9824.4845    198.64073   -2892.9177        95.94  0.099992376 
    2400    444.95121    30194.387    4979.2835    5117.2814    4494.1886    10777.472    4968.6837    9757.7736    196.26922   -2795.1362        95.94  0.099992376 
    2500    457.15382    29934.592    4968.2367    5117.9408    4483.7487    10633.003    4936.0508     9687.975     193.8148   -2694.9514        95.94  0.099992376 
    2600    469.79325    29665.797    4957.1552    5118.9093    4473.5831    10482.606    4903.2576    9615.0703    191.27956   -2592.5031        95.94  0.099992376 
    2700    482.85185    29387.873     4946.071    5119.6815    4463.2184    10326.538    4870.4084    9539.0428    188.66567   -2488.1157        95.94  0.099992376 
    2800    496.31002    29101.309    4935.0136    5120.3273    4452.7541    10165.095    4837.6071    9459.8782    185.97538    -2381.998        95.94  0.099992376 
    2900    510.14621    28806.634    4924.0095    5120.9169    4442.2874    9998.6148    4804.9562    9377.5643    183.21104    -2274.365        95.94  0.099992376 
    3000    524.33699    28504.521    4913.0888    5121.6225    4432.0204    9827.4762    4772.5573    9292.0922    180.37508   -2165.4141        95.94  0.099992376 
Loop time of 10.7014 on 8 procs for 3000 steps with 7140 atoms

Performance: 0.024 ns/day, 990.875 hours/ns, 280.336 timesteps/s
98.8% CPU use with 8 MPI tasks x no OpenMP threads

MPI task timing breakdown:
Section |  min time  |  avg time  |  max time  |%varavg| %total
---------------------------------------------------------------
Pair    | 1.9967     | 3.3989     | 5.0703     |  57.6 | 31.76
Bond    | 1.4301     | 2.0166     | 2.574      |  29.9 | 18.84
Kspace  | 2.7197     | 4.7181     | 6.4997     |  60.6 | 44.09
Neigh   | 0          | 0          | 0          |   0.0 |  0.00
Comm    | 0.23481    | 0.46427    | 0.6718     |  22.1 |  4.34
Output  | 0.0014505  | 0.0016571  | 0.0029803  |   1.2 |  0.02
Modify  | 0.05322    | 0.063115   | 0.070828   |   2.5 |  0.59
Other   |            | 0.03883    |            |       |  0.36

Nlocal:        892.500 ave        1296 max         582 min
Histogram: 3 0 0 1 0 1 1 1 0 1
Nghost:        2073.50 ave        2295 max        1800 min
Histogram: 1 0 2 0 0 1 0 2 1 1
Neighs:        73834.9 ave      116769 max       43053 min
Histogram: 2 1 1 0 0 1 1 1 0 1

Total # of neighbors = 590679
Ave neighs/atom = 82.728151
Ave special neighs/atom = 12.579832
Neighbor list builds = 0
Dangerous builds = 0
unfix fxnvt
write_data relaxed.data
System init for write_data ...
PPPM initialization ...
  using 12-bit tables for long-range coulomb (../kspace.cpp:340)
  G vector (1/distance) = 0.16229088
  grid = 18 18 18
  stencil order = 5
  estimated absolute RMS force accuracy = 0.027306167
  estimated relative force accuracy = 8.2231711e-05
  using double precision KISS FFT
  3d grid and FFT values/proc = 2744 972

reset_timestep 0
timestep 1
fix  fxnpt all npt temp $T $T 100.0 iso $P $P 1000
fix  fxnpt all npt temp 300 $T 100.0 iso $P $P 1000
fix  fxnpt all npt temp 300 300 100.0 iso $P $P 1000
fix  fxnpt all npt temp 300 300 100.0 iso 100000 $P 1000
fix  fxnpt all npt temp 300 300 100.0 iso 100000 100000 1000

# dump every 1 ps
dump d1 all custom 10000 system.lammpstrj id mol type x y z vx vy vz ix iy iz


variable    epoch loop 50
label       loop
print       "EPOCH = ${epoch}"
EPOCH = 1
run         100000  # 100 ps each time
PPPM initialization ...
  using 12-bit tables for long-range coulomb (../kspace.cpp:340)
  G vector (1/distance) = 0.16229088
  grid = 18 18 18
  stencil order = 5
  estimated absolute RMS force accuracy = 0.027306167
  estimated relative force accuracy = 8.2231711e-05
  using double precision KISS FFT
  3d grid and FFT values/proc = 2744 972
Per MPI rank memory allocation (min/avg/max) = 18.53 | 18.60 | 18.98 Mbytes
Step Temp PotEng E_vdwl E_coul E_pair E_bond E_angle E_dihed E_impro Press Lx Density 
       0    524.33699    28504.521    4913.0888    5121.6225    4432.0204    9827.4762    4772.5573    9292.0922    180.37508   -2165.4141        95.94  0.099992376 
     100    845.94641    25978.512    4873.1176    5224.8536    4498.0388    5553.6137    7425.3946    8372.5867      128.878    442.41824    86.468103    0.1365835 
     200    697.60678    21933.379    4796.1716    5174.4517    4368.9238    4237.3982    6109.4938    7116.8112    100.75208    854.93548    79.898859   0.17311883 
     300    640.59223    19054.429    4214.8455    5179.1362    3790.1025    3449.4442    5337.2841    6389.2553    88.343226    1253.7473    74.780356   0.21115601 
     400     544.4274    16740.557    3771.7191    5140.3791     3309.359    3307.9435     4641.169    5423.7268    58.358699    623.92437    70.543626   0.25153168 
     500    457.31983    15531.033     3715.187    5100.5354    3211.7754    2920.4351    4284.8344     5058.461    55.526708     667.8001    66.969198   0.29399553 
     600    392.87571    14296.279    3421.4304      5123.16    2940.8153    2590.4396    3910.7329    4803.7537     50.53776    1422.2186    63.873991   0.33883938 
     700    353.04571     13588.37    3354.8847    5116.0632    2865.4767    2307.5425    3852.0308     4512.356    50.964009    1986.8915    61.179468   0.38561059 
     800    324.42115    13001.518    3184.3151    5141.7649    2722.0414    2149.4143    3588.7853    4494.1042    47.173059    1946.9261    58.790545   0.43455381 
     900    314.72801    12519.958     3078.653    5096.1604    2570.4985    2071.4567      3510.01    4323.0446    44.948544    2605.8979    56.664703   0.48531998 
    1000    316.37216    12021.528    2969.4494     5104.789    2470.5291    1913.2449    3387.5931    4205.0043    45.156372     3294.667    54.751768   0.53798675 
    1100    307.33058    11786.167    2829.3338    5084.6428     2307.947    1846.2269    3355.3309    4232.2986    44.363687    3184.3068    53.013938   0.59264664 
    1200     300.0903    11644.486     2671.225    5098.7566    2162.0833    1870.4377    3348.9152    4220.9052     42.14462    3665.4264    51.427623   0.64919725 
    1300    305.96371     11457.78    2531.8221    5079.6124    2002.9397    1790.0036    3319.8156    4302.3074    42.713421     3687.357    49.978186   0.70733406 
    1400    303.35397    11464.496    2554.3926    5093.8352    2038.0441    1772.2147    3317.8753    4300.5021    35.859488    4987.8252    48.642591   0.76721295 
    1500    303.54026    11503.064    2384.6295    5079.2852    1851.9581    1761.1452    3290.8225    4552.1812    46.956959     5433.105    47.414476   0.82838681 
    1600    298.48302    11620.123    2360.0935    5065.4248    1812.9687    1737.3948    3381.8884    4647.3494    40.521209    6737.7834    46.270905   0.89133723 
    1700    308.21177    11626.117    2237.6862    5044.4617    1669.8924    1705.2287     3366.314    4840.2241     44.45738    8059.0181    45.219905   0.95494224 
    1800    298.01184    12012.563     2206.226    5055.0045    1649.2974    1689.1502    3552.0629    5078.8291    43.223033     9668.578     44.23935    1.0198583 
    1900     301.8413    12506.977    2481.3478    5025.6321    1895.2863    1701.0599    3629.7149    5231.7158     49.19964    15117.569    43.345736    1.0842437 
    2000    309.08426    13065.989    2602.9544    5019.5558    2009.0317     1712.041    3849.3381      5444.72    50.858127    19454.984     42.52164    1.1485132 
    2100    314.52287      13502.9    2651.8664    4986.9639    2024.7714    1699.2367    3872.5548    5847.2929    59.044612    24778.824    41.768163    1.2117971 
    2200    311.27388     13991.86    2839.7662    5004.9239    2230.2271    1660.0998    4083.9299    5959.5364    58.067043    30431.316    41.076625    1.2740362 
    2300    306.23437    14551.951    2870.0493    4988.0457    2246.9384    1679.1428    4276.3519    6282.9407    66.577401    35368.847    40.445683     1.334595 
    2400      300.352    15436.373    3348.6762    5001.4686    2736.1259    1671.6595    4327.4267    6625.5251    75.636273    44013.752    39.892374    1.3909015 
    2500    304.32832    16343.979    3682.2721    5030.9542    3101.0414    1763.4556    4600.7961    6803.8898    74.796434    52306.227     39.41052    1.4425456 
    2600    302.66809    17309.534    4151.2708    5015.6777    3555.6032    1731.6395    4789.3689    7157.9464    74.975644     62104.24    39.003245    1.4882086 
    2700      297.203    18298.461    4625.0569    5009.3744    4022.8694    1790.8695    4932.0906    7469.7946    82.837314    72781.513    38.664658    1.5276488 
    2800    296.52687    19053.261    5169.4273    4985.3944    4543.4048    1847.7746    5095.1172    7483.8229     83.14135    83583.072    38.417588    1.5573124 
    2900    302.72448    19553.159    5422.6161    4955.1163    4770.3629     1911.189    5138.4699    7653.5642    79.572492     88018.33    38.232774    1.5800055 
    3000    299.59481    20066.073    5624.6309    4925.1819    4939.9963    1943.1725    5270.3164    7830.6094    81.978236    92708.242    38.100116     1.596567 
    3100    296.55693    20422.463    5757.7094    4900.7853    5043.8863    2063.7258    5344.9029    7886.7117    83.236068    94789.993    38.005966    1.6084616 
    3200    299.63015    20607.637    5930.0324    4887.6507    5207.7853     2061.096    5426.8702    7828.5947    83.290866    97584.611    37.943988    1.6163563 
    3300     298.5442    20749.197     5931.628    4900.3862    5222.5502    2132.6744    5424.4836    7889.5873    79.901501    98159.708    37.902248    1.6217022 
    3400    299.04205     20818.78     5827.542    4930.3887    5146.7391    2153.5291    5388.8567    8042.0331    87.622346    97923.521    37.876738    1.6249811 
    3500    299.57227    20863.585    5925.0739    4919.0331    5232.3571    2223.8373    5427.8247    7886.9383    92.627624    100943.82    37.847468    1.6287541 
    3600    297.26924    20842.042    5863.6736    4908.6638    5157.9479    2286.6079    5514.6762    7800.5171    82.292375    99185.874    37.829279    1.6311047 
    3700     295.4308    20833.733    5885.5285    4897.3932    5171.1681    2332.1112    5467.3597    7781.3487    81.745245     98529.59    37.806353    1.6340738 
    3800    300.45585     20814.83    5731.6947    4912.8653    5032.4713     2325.455    5480.5027    7896.5719    79.829119     99717.84    37.781214    1.6373378 
    3900     303.4591    20693.365    5827.6206    4880.6882    5096.8689    2371.8561    5334.6724    7814.8084    75.158812    100304.75    37.784485    1.6369126 
    4000    298.04616    20792.998    5702.3663    4912.1177    5003.4944    2421.4888    5457.1171    7829.3419    81.556081    98513.025    37.781328    1.6373231 
    4100    300.73914    20841.374    5677.9579    4890.2397    4956.0194    2433.4746    5516.4221    7852.1291    83.328355    99436.208    37.759785     1.640127 
    4200    298.02043    20907.757    5761.1321    4857.8821    5008.5561    2468.5201    5439.9456    7906.9447    83.790588     99418.25    37.756546    1.6405492 
    4300    302.59963    20889.902    5772.4565    4901.3274    5064.6427    2553.2657     5453.756    7732.9161    85.321428    101073.66     37.74746    1.6417342 
    4400    304.31301    20824.369     5641.012     4870.936     4900.247    2590.6261      5461.86    7787.5075    84.128775    97683.497    37.747317    1.6417528 
    4500    294.74216    20996.863    5699.2562    4887.8473    4979.8498     2664.046    5369.3466    7902.5553    81.065628    101038.45    37.723545    1.6448584 
    4600    294.43506    20784.056    5693.3519    4866.9123    4950.6502    2593.4438    5371.3036    7790.7468    77.911172    97860.583     37.73297    1.6436262 
    4700     297.6126    20860.967    5686.0865    4880.6799    4957.6463    2577.3552    5418.7381    7834.2273    72.999637    99370.105     37.70169    1.6477207 
    4800    303.85045    20867.053     5721.197     4851.516    4962.7461    2620.1192    5491.9641    7712.5376    79.685718    100757.73    37.698479    1.6481417 
    4900    299.83081    20980.334    5604.2071    4878.7383    4871.2395    2684.7716    5559.2975    7789.5976    75.427597    98847.387    37.712138    1.6463515 
    5000    303.35419    20938.756    5643.8341    4882.4544     4917.798    2644.0194    5511.5039    7790.0033     75.43106    98843.786    37.704869    1.6473039 
    5100    298.47705    20952.056    5786.6472    4869.9872    5050.7807    2675.6907    5368.6127    7776.5104    80.461233    101984.02    37.698569    1.6481299 
    5200    298.73766    20938.699    5574.0697    4866.8495    4831.0796    2673.1794    5432.6888    7921.2904    80.460643    99410.593    37.678043    1.6508249 
    5300    298.76284    20945.531    5620.4435    4871.9354    4881.8513    2655.0897    5503.2014    7828.5833     76.80496    99885.048    37.662092    1.6529233 
    5400    297.08405    20970.191    5636.9263     4857.292    4880.7762    2623.4918    5428.5224    7961.9756    75.424651    99687.973    37.658844    1.6533511 
    5500    296.23503     21099.67    5706.0507     4863.197    4955.8446    2752.1553     5466.663    7846.5798    78.427009    101093.96    37.646749    1.6549451 
    5600    297.82812    21009.923    5658.2368    4837.0044    4883.0706    2757.5614    5467.2815    7827.3877    74.621292    99531.696    37.660003    1.6531984 
    5700    299.76654    20869.939    5631.9608    4831.1996    4848.2146    2737.9136    5467.9943    7740.4905     75.32616    99666.213    37.678576    1.6507549 
    5800    300.62428     20951.71    5538.2415    4850.1006    4772.6967     2836.421    5447.1586    7820.4644    74.969278    96833.489    37.662546    1.6528636 
    5900    297.07507    21126.319    5656.4291     4812.023    4851.5613    2836.9938    5461.5378    7902.9191    73.307544    101743.67    37.639828    1.6558581 
    6000    297.95889    20997.323    5593.6727    4854.8655     4835.054    2773.7161    5536.6299    7779.5715    72.351608    101858.33    37.650791    1.6544122 
    6100    300.59271     20945.44    5633.6298    4827.9211    4846.3959    2850.6895    5422.0703     7750.854    75.430222    100978.71     37.64722     1.654883 
    6200    306.59104    20778.304    5472.9786    4803.5124    4661.7242    2782.6274    5370.8027    7889.4228    73.726808     97797.78    37.648169    1.6547579 
    6300    301.03871    20973.825    5711.9026    4810.5168    4906.7727    2785.8699    5401.2752    7796.1718    83.735403    100842.36    37.629232    1.6572574 
    6400    293.48818    21096.664    5695.9436    4813.3519    4893.2703    2888.2163    5473.6221    7763.0266    78.528544    101137.54    37.637946    1.6561066 
    6500    298.08874    20986.136    5621.6603    4812.9939    4820.8624    2818.3535    5539.0371    7735.5416     72.34156    99963.595    37.651967    1.6542571 
    6600    299.99273    21020.587    5650.0852    4815.2175    4853.2215    2882.0682    5449.9795    7755.7195     79.59779    99971.561    37.645526    1.6551064 
    6700    298.08113    21057.593    5644.6731    4827.6233    4858.2106    2817.7552    5510.3986    7788.6194    82.609577    100000.32    37.635001    1.6564954 
    6800    302.42602    20876.511    5606.8564    4817.1005    4810.3445     2865.239     5432.701    7693.0636    75.162513    101189.46    37.635161    1.6564742 
    6900    297.36933    20907.779    5584.5439    4810.6636    4779.5413    2859.9375    5438.3339    7751.8678    78.098203    100147.19    37.637533    1.6561611 
    7000    299.82117    20887.994    5509.7074    4812.7965    4711.3158    2861.9783     5400.865    7838.7778    75.056923    97595.384    37.637237    1.6562002 
    7100    300.30602    21060.742    5656.3757    4806.8093    4848.1808    2835.6777    5471.4294    7827.5329    77.921325     100123.8    37.623185    1.6580567 
    7200    303.71684    21034.173    5660.4838    4808.2915     4855.463    2897.4729    5429.3648    7763.8312    88.040824    100542.31    37.627444    1.6574936 
    7300    306.83127    20870.149    5569.4185    4797.4082    4752.4513    2852.9222    5456.7773    7735.0774    72.920219    101052.34    37.635447    1.6564365 
    7400    297.73063    20916.899    5534.1928     4785.459    4707.4336    2841.9136    5439.8622    7848.8904    78.798817    98933.713    37.633459     1.656699 
    7500    294.38721    21002.971    5680.5901    4801.6675     4866.871      2870.76    5421.4922     7765.422    78.426178     100942.6    37.613389    1.6593524 
    7600    301.18269    20800.092    5531.2425    4819.1072    4736.7262    2850.7519    5498.0863     7637.929     76.59903    100387.46    37.628831    1.6573103 
    7700    302.00551    20911.603    5557.3225    4788.4012    4730.2435    2866.1488    5452.9817     7785.685    76.544082    99500.012    37.628269    1.6573847 
    7800    305.54565    21000.369    5632.6432    4811.6373    4830.1496    2900.9758    5462.7395    7723.2998    83.204623    99872.938    37.618119    1.6587265 
    7900    305.24589    20999.225    5638.1505    4793.5963    4816.5512    2975.9078     5426.274    7698.5091     81.98312    101915.68    37.612504    1.6594696 
    8000    300.24349     20820.22    5615.4153    4782.0245     4782.544    2788.8685    5383.8792    7783.0992    81.829558    99509.017     37.63436    1.6565801 
    8100    296.47847    20843.906     5579.816    4797.8938    4764.3441    2845.4261    5434.5317    7722.4052    77.198855    99311.794    37.624125    1.6579324 
    8200    296.56903     20940.73    5592.4373     4784.902    4764.5902    2922.7216    5443.7214    7731.1394     78.55752    100654.71    37.607935    1.6600744 
    8300    296.58303    20948.617    5559.3084    4825.7607    4770.6499    2932.0916    5358.7399    7803.9602    83.175389    98876.843     37.62371    1.6579872 
    8400    304.68142    20892.152    5620.6048    4798.4514    4803.4275    2877.5156     5392.993    7743.9703    74.245221    100166.82    37.621037    1.6583407 
    8500    300.92865    21011.105    5580.4697     4794.613    4761.7039    2951.5761    5419.7385    7795.4219     82.66461    100498.71    37.618161     1.658721 
    8600    299.24274    20970.243    5580.2397    4770.4583    4737.0785    2869.9634    5522.0817     7766.506    74.613666     98017.93    37.613918    1.6592825 
    8700    300.19567    20871.195    5655.3134    4786.0211    4824.7501    2838.1439    5433.0953    7706.3634    68.841913    99783.812    37.601362    1.6609453 
    8800       298.72    20684.794    5470.1696     4794.355    4648.1679    2880.4225    5370.1101    7711.8167    74.277099    100224.53    37.621871    1.6582304 
    8900    297.49903    20812.229    5637.9639    4769.6635    4792.5914     2805.556     5496.318    7642.9108     74.85242    100130.06    37.614464    1.6592102 
    9000    301.25977    20936.466    5637.5031    4788.9578      4813.48    2940.2928    5449.4295    7654.6638     78.59989     101106.6    37.601809     1.660886 
    9100    301.26792     20920.88    5548.1524    4789.3211    4722.1193    3033.7816    5398.8012    7682.1985    83.978934    100217.74    37.621269      1.65831 
    9200    302.86582    20916.728    5620.6147    4771.2203    4777.3356    2857.6762    5516.2136    7688.9897    76.513113    100872.95    37.612803      1.65943 
    9300    301.34811    20739.642    5600.7734    4789.2458    4775.8427    2918.9729    5369.4108    7602.0343    73.381658    101973.03    37.621758    1.6582453 
    9400    295.13256    20746.584    5541.2657    4827.8006    4754.4135    2912.2499     5395.862    7610.4828    73.575924    100839.23    37.619297    1.6585707 
    9500    299.34489    20709.586    5544.1743    4791.5384    4721.7982    2833.7901    5394.5252    7682.9344    76.538129     101603.1    37.610816     1.659693 
    9600    300.63398    20843.343    5684.4598    4754.4965    4824.2296     2871.851    5377.2247    7692.0424    77.995688    102308.85    37.607652    1.6601119 
    9700    301.71516    20970.377    5669.6999    4765.9966    4823.7704    2998.2662    5388.9167     7680.107    79.317128    100293.41    37.607746    1.6600995 
    9800    304.63843    20863.148    5532.5636    4798.5441    4718.7187    2950.2729    5469.1521    7646.1908    78.813149    97545.331    37.614224     1.659242 
    9900    298.51342    20863.956    5582.0303    4759.9385    4728.8033    2896.2816    5438.9405    7716.8984    83.032505    100311.67    37.611899    1.6595497 
   10000    293.62056    20851.435    5613.5229    4756.1758    4755.8837    2930.6809    5430.5354    7658.6739    75.661407    98928.109    37.604695    1.6605036 
   10100     293.6983    20816.544    5544.3166    4765.2984    4699.1194    2848.5737     5399.255     7791.428    78.168249    99617.447    37.602179     1.660837 
   10200    296.81906    20871.365    5597.6577    4764.7923     4750.905    2972.9064    5404.1683    7665.5851    77.800231    100318.69    37.600704    1.6610324 
   10300    300.73714     20910.96    5509.3138    4766.9682    4662.4686    2961.7598    5518.8545     7689.352    78.524632    99964.644     37.60974    1.6598355 
   10400    305.64244    20983.413    5699.5097    4779.8035    4867.5646    2870.9199    5462.1131    7705.2585    77.556727    103246.99    37.591899    1.6621999 
   10500     300.0252    20868.558    5578.0726    4775.4965    4739.2914    2999.5818    5358.2223    7691.1927    80.269798    99434.545    37.611478    1.6596053 
   10600    298.97149    20762.001    5611.6543    4754.9465    4751.1269    2850.1062    5430.3396    7657.5281    72.900455     100281.8    37.603288      1.66069 
   10700     294.9578     20844.93    5521.0385    4785.7834    4692.8529    2906.3935    5466.1009    7703.4831    76.099898    99283.301     37.59565    1.6617024 
   10800    298.50479    20838.996    5694.8359    4759.6615    4840.2584    2949.0947    5353.1632    7621.2234    75.255814    103139.86    37.595485    1.6617243 
   10900    298.63842    20857.556      5629.81    4750.5515    4767.3597    2899.1153    5428.6005    7692.5114    69.968856    99776.435    37.614043    1.6592659 
   11000    305.37683     20864.74    5597.9212      4749.83    4734.9143    2901.0383      5405.25    7747.1077    76.429498    100321.32    37.602949    1.6607349 
   11100    303.69481    20889.352    5584.6094    4774.9333    4746.9492    2849.8923    5487.2672    7724.9461    80.296765    99195.702     37.59902    1.6612556 
   11200    299.77067    20819.906    5511.5849    4766.9824    4668.0902    2979.9605    5373.7301    7722.7958    75.329533    98823.982    37.603847     1.660616 
   11300    296.68523    20824.649    5621.4036    4772.8433    4780.3711    2913.7605    5349.0408    7696.8872    84.589943    100160.56    37.600268    1.6610902 
   11400    301.45196    20779.817    5691.1011    4756.7393     4832.932    2806.1236    5356.1349    7708.8591    75.767081    101815.47    37.595628    1.6617052 
   11500    300.65129    20809.965    5592.3436    4748.8728    4725.3225    2958.7724     5380.378    7666.4975    78.994618    99653.456    37.607762    1.6600974 
   11600    303.90127    20851.911    5571.3842    4771.3585    4730.3583     2932.009    5443.5327    7667.3942    78.616296    101269.98    37.601908    1.6608729 
   11700    302.77392    20854.525    5546.3998    4792.7758     4725.185    2905.2066     5442.972    7700.1262    81.035688     98945.59    37.609312    1.6598921 
   11800    301.64508    20878.476    5588.0459    4771.7849    4746.7767    2964.9268     5378.314    7712.1564    76.301774    100313.17    37.599157    1.6612374 
   11900    296.93374    20874.017    5559.2064    4767.0453    4711.5696    2910.4226     5426.313     7748.571    77.140772     100853.6    37.597384    1.6614725 
   12000    296.63321    20785.298    5567.4427    4751.6431    4706.1907    2885.6944    5399.9259    7711.3881    82.098511    101336.42    37.602745     1.660762 
   12100    295.89311    20778.109    5553.8578    4758.2698    4697.9926    2921.4834    5373.4489    7707.0731    78.111168    101130.21    37.618484    1.6586782 
   12200    305.05716    20724.785    5507.4153    4749.2046    4640.6821    2940.7912    5296.1676    7769.9242    77.220374    100809.24    37.618975    1.6586134 
   12300    304.48662    20889.869    5536.3587    4764.9537    4686.5499    2990.1194    5506.6848    7628.5074    78.007201    100662.34    37.607195    1.6601724 
   12400    299.70042    21008.873    5682.4493    4775.2366    4842.2105     3010.489    5371.6114    7708.7783    75.783534    99318.659    37.594054     1.661914 
   12500    300.49558     20764.94    5627.5613     4766.577    4779.0768    2902.1796    5380.9263    7623.5176    79.240172    99466.343    37.602545    1.6607884 
   12600     297.4062    20715.301    5494.9443    4785.4669    4664.7587    2961.3253    5400.7617    7615.6999    72.755141    99365.646     37.60571    1.6603691 
   12700    294.76983    20903.966    5727.7159    4763.3205    4876.3807    2908.7142    5454.5174    7590.7151    73.638201    103219.86    37.593374    1.6620042 
   12800    302.90848    20811.516    5546.7191    4762.4644     4693.583    2917.1531    5439.6947    7682.3515    78.733238    99817.766    37.605157    1.6604424 
   12900    303.60327    20928.962    5553.2666    4791.3452    4731.7753     2964.353       5458.2    7698.8467    75.787159    99464.946    37.603658    1.6606409 
   13000    303.43609    20950.815    5596.5738    4782.5597    4764.1905    2920.6702    5475.8428    7711.9355    78.175765    99317.577    37.596081    1.6616452 
   13100    296.94339    20851.873    5533.0601     4761.977    4680.8527    2976.8384    5390.4806    7728.1257    75.575255    99268.279    37.611377    1.6596188 
   13200    294.97985    20778.998    5598.6776     4762.385    4747.9407    2916.8544    5353.3822    7684.0712    76.749647    99122.863    37.609139     1.659915 
   13300    301.10748    20711.942     5633.516    4768.9173     4788.369    2841.3636    5364.0574    7646.4072    71.744751    100609.92    37.598672    1.6613017 
   13400    300.46314    20822.809    5608.8121    4760.6438    4755.3249    2994.8432    5368.4833    7625.7541    78.403797    101260.82    37.604554    1.6605223 
   13500    302.42062    20872.557    5506.6966    4772.6153    4664.1909    3060.4819    5362.7891     7707.771    77.323599    98074.764    37.613851    1.6592913 
   13600    306.60652    20896.355    5601.1224    4776.9679    4764.0525    2919.5462    5473.7218    7666.3145    72.719606    100893.11    37.598062    1.6613826 
   13700    299.74409    20799.567    5484.2976    4773.3174     4643.141    3008.7034    5479.1238    7592.0016     76.59713    98794.597    37.615336    1.6590947 
   13800    297.07324    20803.595    5583.1424    4772.0855    4740.9237    2944.1779    5382.0564    7657.6884    78.748952    101050.07    37.596538    1.6615846 
   13900    295.13714    20765.136    5578.5156    4794.9278    4756.3461    2962.6134    5424.1346    7544.2946     77.74734    100734.78    37.605024      1.66046 
   14000    298.48406    20748.684    5540.9645    4758.6048     4683.715    2920.5328    5396.0532    7670.4574    77.925584    98853.186    37.616068     1.658998 
   14100    308.17906    20935.652    5702.5381    4772.7762    4858.7282    2900.6248    5439.6652    7661.3236    75.309847     103132.7    37.580035    1.6637747 
   14200    305.40482    20873.901    5549.3482     4762.292     4695.266    2960.8022    5452.5582    7686.1087    79.165541    100105.63    37.605105    1.6604492 
   14300    298.14202    20983.005    5605.0136    4764.1107    4754.2437    2990.0804    5484.9446    7679.8474    73.888527     101267.1    37.593775     1.661951 
   14400    295.45368    20928.174    5724.5808    4774.4411    4884.3308    2956.7499    5413.3916    7600.9309    72.770782    100993.86    37.590456    1.6623913 
   14500    296.30058     20679.65    5518.3608    4754.3776    4656.6302    2856.8594     5462.146    7622.6913    81.322574     100330.3    37.617446    1.6588156 
   14600    295.24869    20968.016    5592.8768    4777.8102    4753.3595    3002.0442    5504.9991    7635.5702    72.043176    101619.79    37.588471    1.6626547 
   14700    299.67715    21017.906    5647.0839    4782.1596    4811.9229    2978.8796    5476.7168    7674.7109    75.675525    101727.53    37.587588    1.6627718 
   14800    305.05662    20786.031    5443.7887    4782.5705    4611.3969     2930.514    5429.7974    7737.2459    77.077017    98963.624    37.617348    1.6588286 
   14900    301.60493    20882.516    5567.4561    4808.7153    4760.0326    2956.5512    5384.5774    7707.0079    74.347036    100619.76    37.604495    1.6605301 
   15000     297.4866    20889.489    5535.2533    4785.8409    4705.0263    2981.9698    5446.3546    7685.4182    70.720464    99567.271    37.599677    1.6611685 
   15100    299.10229    20751.098    5526.2729    4770.5818    4681.2763    2946.3095    5359.3274         7690    74.184516    101091.51    37.606591    1.6602524 
   15200    299.23629    20777.011    5596.4195    4808.7839    4789.2216    2924.1391     5393.442    7594.6119    75.596045    99013.983    37.606657    1.6602438 
   15300    305.21116    20713.898    5584.4653      4795.27    4762.9612     2903.682    5388.7702    7583.6771    74.807984    99745.812    37.611461    1.6596077 
   15400    305.77503    20816.214    5595.1602    4787.4603    4766.6992    2976.0405    5391.3403    7606.1839    75.950384    99782.717      37.6051      1.66045 
   15500    300.56499    20930.351    5584.7165    4776.9399     4744.698    2965.0991    5464.4358    7676.5688    79.549201    100442.62    37.599289    1.6612199 
   15600    299.41039    20828.062    5534.7524    4769.3475    4685.5992    2902.2275    5449.1514    7710.4831    80.600883    99331.267    37.606487    1.6602663 
   15700    297.24996    20866.882    5534.5654    4757.8054    4676.0804    2994.4624    5452.8289    7666.1984     77.31167    98840.128    37.596286     1.661618 
   15800    296.10969    20897.725    5587.6023     4779.669    4750.8083    2983.5199    5379.9749    7699.5666    83.855214    100520.54    37.595295    1.6617495 
   15900    299.46762    20753.714    5475.6934     4788.371    4648.7853    2875.4994    5429.7375    7724.7627    74.929047    97945.863    37.617967    1.6587467 
   16000    301.56938    20905.821     5540.788    4797.7486    4723.4003      2911.02    5454.1934    7740.3513    76.856056    98476.292    37.601921    1.6608711 
   16100    301.92386    20916.587     5582.794    4789.5869    4756.6276    2998.7084    5433.3633    7648.7705    79.116758    100940.94    37.601589    1.6609151 
   16200    298.93533    20873.596     5621.175    4777.7658     4786.348     2883.909    5423.0969    7702.8896    77.352514       102520    37.605307    1.6604225 
   16300    301.36096    20660.996    5508.9662    4751.4884    4644.3011    2873.9104    5422.2882    7642.6918    77.804701    98109.014    37.618552    1.6586694 
   16400    300.41753    20835.389    5591.8257    4755.6852    4735.2454    2906.3764    5412.5547    7705.8908    75.322092    97917.663    37.590475    1.6623888 
   16500    296.02503    20933.957    5563.4614    4779.7795    4729.7084    2981.7275    5487.8907    7657.5158    77.114521    98462.706    37.596216    1.6616273 
   16600    302.34844    20861.786    5502.2696    4792.7145    4680.1317     2936.207      5485.78    7679.3254    80.341915    100671.26    37.598766    1.6612893 
   16700    302.08814    20881.463    5651.0055    4760.8331    4797.5233    2902.7239    5452.1127    7655.5139    73.589103    101587.04    37.601915    1.6608719 
   16800    300.85088     20856.98    5496.0806    4759.5453    4639.5394    2929.5593    5486.2959    7723.4941    78.091079    99653.981    37.606883    1.6602138 
   16900    300.12845    20862.524    5573.6762    4751.4658    4709.3804    2964.4341    5374.6834    7733.4834    80.542873    100689.42    37.597772     1.661421 
   17000    298.98492    20756.509    5579.6342    4773.7471    4739.0435    2942.3872    5351.6736    7646.0205     77.38368    101534.76    37.610071    1.6597917 
   17100    296.22068    20886.407    5698.3387    4765.7677    4852.9178    2976.3569    5432.7059     7552.356    72.070163    101108.26    37.599323    1.6612154 
   17200      297.946    20885.268    5619.7839    4773.1024    4777.5244    2939.7772    5449.0245    7637.9841    80.957577    101639.26    37.601222    1.6609638 
   17300    300.82615    20785.473    5545.7732    4762.3321    4694.3306    3016.4982    5363.8976    7634.6538     76.09304    99628.199    37.614693    1.6591798 
   17400    297.28918    20926.338    5614.2375    4788.7045    4787.6499    2878.0936    5496.4278    7687.1467    77.020038    99475.012    37.607521    1.6601293 
   17500    301.18047     20947.44    5560.2249    4781.0311    4728.6248    3005.4398    5415.4142    7717.2203     80.74057    101243.77    37.586006    1.6629818 
   17600    300.29745    20764.542    5431.1338    4781.4605    4599.9218    2951.4311    5461.6706    7676.2864      75.2324    99983.003    37.609925     1.659811 
   17700    299.50164    20913.471     5720.172    4786.6019    4893.3576    2883.7025    5401.6212     7656.872    77.918159    101264.19    37.582894    1.6633949 
   17800    293.96963    20901.352    5569.4277    4781.5998    4739.3721    2907.9866    5520.8946     7657.582    75.516906    98598.736    37.605895    1.6603446 
   17900    301.43437     20793.28    5459.5261    4771.5699     4619.184    2976.1688    5430.2116    7687.4902    80.225614    98628.244    37.606239     1.660299 
   18000    300.33201    20879.134    5542.4541    4767.0654    4694.8003    2995.0028    5377.4042    7736.2854    75.641559    98794.965    37.604864    1.6604812 
   18100    299.88424    21026.439    5694.5708    4802.0122    4884.5585    3013.3881    5416.5348    7628.4885    83.468607    101541.93    37.582678    1.6634236 
   18200    303.23555    20788.584    5424.9394    4773.4717    4584.6675    2923.2778    5435.2468    7769.2494    76.142825    97548.233     37.60046    1.6610648 
   18300    302.87896    20717.344    5545.0456    4770.0266     4702.656    2904.1489     5393.728    7642.1293    74.682119     99385.36    37.604914    1.6604746 
   18400    295.57253    20944.302    5655.5037    4772.6248    4813.4906    2947.0587    5425.7157    7681.7717    76.265737      99554.3    37.591604     1.662239 
   18500    301.47023    20791.578     5606.294    4770.1696    4764.6358     3000.313    5292.9515    7656.3824    77.295274    99523.438    37.601723    1.6608974 
   18600    301.08087    20785.177    5507.9534    4753.8478    4646.7369    2915.9419    5438.6524    7705.4597    78.386356    98442.914    37.610796    1.6596956 
   18700    302.80352    20915.093    5592.1947    4781.5928    4757.9127    3021.1452    5414.0313    7645.6041    76.399695    101416.88      37.5877    1.6627569 
   18800    301.41956    20883.953    5613.0764    4789.0906    4787.6537     3003.262    5341.7633    7673.2768    77.997383    102000.79    37.596773    1.6615535 
   18900    296.73686    20856.226    5501.6286    4791.1604    4677.9288    3022.0763    5435.2856    7644.0113    76.923743    98636.247    37.612302    1.6594963 
   19000    299.57687    20949.206    5702.5143    4786.3005    4874.5104    2964.2877    5360.4271    7672.1934    77.787755    102435.74    37.582937    1.6633893 
   19100    295.95329     20933.74    5492.9952    4775.1458    4653.4559    2986.0513    5435.1923    7783.5971    75.443371    100456.22    37.593564     1.661979 
   19200    292.08401    20913.642    5489.1065    4745.1982    4618.3561    2963.4096    5510.6601    7735.2397    85.976632    97436.838    37.611644    1.6595834 
   19300    297.74541    20951.514    5525.0209     4784.001    4694.2051    2938.6777    5488.0944    7752.9077    77.629132    99536.995    37.595855    1.6616752 
   19400    303.75254    20832.892    5553.0466    4783.4265    4722.6131    2948.9438    5398.1732    7684.3795    78.782597    99604.638    37.602071    1.6608513 
   19500    303.53989    20849.901    5537.7328    4758.7968    4680.5735    2940.6806    5468.8692    7687.8345    71.943692    101675.97    37.596933    1.6615322 
   19600    304.07388    20765.116     5609.761    4780.4318    4775.9597    2884.6809    5339.2285    7688.0115    77.234994    100847.34    37.597263    1.6614885 
   19700    299.63335     20808.14    5602.2409    4769.5958    4759.1637    2910.4908    5332.7968    7727.6585     78.03064    98879.727    37.599074    1.6612484 
   19800    299.24612    20855.453    5642.3267    4776.2945    4803.5893     2900.968    5383.7961    7690.8105     76.28958     100912.3    37.594702    1.6618281 
   19900    299.84816    20792.023    5409.4921    4779.7423    4575.5758    2970.3229     5465.649    7701.8606    78.614372    98895.793    37.614886    1.6591543 
   20000    303.69979    20943.321    5607.3238    4770.2076    4762.9678    2996.7156    5390.3107     7716.522     76.80547    101253.72    37.586167    1.6629605 
   20100    303.63899    20939.765     5651.449    4780.9072    4819.2907    3039.5289    5344.6797    7665.0228    71.242897    101892.89     37.58254     1.663442 
   20200    297.61045    20811.825     5448.068    4766.4589    4599.4493    3039.3356    5456.2285    7635.9382    80.873071    98676.788    37.612828    1.6594267 
   20300    297.58509    20847.391    5592.2245    4793.2382    4771.3179    2945.4597    5403.5175    7648.4031    78.692765    98744.573    37.599295    1.6612191 
   20400    298.33675    20889.805    5653.8759    4784.2779    4825.6136    2882.1651    5421.5346    7684.7182    75.773765    99917.996    37.592599     1.662107 
   20500    303.57642    20848.314    5560.4602    4790.7119    4740.0144    2879.5657    5410.6188     7744.038    74.077278    99975.738    37.591077    1.6623089 
   20600    303.53905    20822.293    5568.1659    4783.6729    4740.4164    2905.4273    5368.9052    7729.4658    78.078651    98901.128    37.604181    1.6605717 
   20700    301.60668     20833.81    5534.1543    4778.3113    4701.5642    3007.7803    5419.7465    7628.2986    76.419997     99775.64    37.609496    1.6598678 
   20800    297.64515    20930.804    5549.6281    4751.8438    4687.5377    3009.0324    5474.5498    7684.8497    74.834841    99704.187    37.597622    1.6614409 
   20900    300.86252    20903.747     5588.915    4758.4547    4736.5497    2987.6417    5400.7011    7698.1396    80.715242     101607.4    37.579466    1.6638502 
   21000    296.06208    20856.348    5557.3958    4781.8452    4726.3596    3013.5449    5421.2137    7620.3803    74.849537    100937.98    37.598802    1.6612845 
   21100    303.26393     20693.38    5548.2304    4769.5419    4702.1515    2857.3548     5405.774    7647.7347    80.365136    98580.559    37.609174    1.6599103 
   21200     305.3165    20876.826    5585.4009    4760.2824    4731.3331    2969.0795    5443.1935    7659.1998    74.019915    101255.77     37.58641    1.6629281 
   21300    304.25273    20867.603    5621.0151    4770.0399    4776.8151    2920.7647    5399.0081    7695.4581    75.556549    100114.09     37.59765    1.6614371 
   21400    300.60653    20877.136    5623.0995    4766.0691    4776.3399     2935.477    5401.1819    7684.1962    79.941296    100061.02    37.602542    1.6607889 
   21500    295.97828     20845.32    5586.8076    4768.3762    4742.1583    2955.4582      5410.92    7658.9094    77.874317    99582.005    37.605999    1.6603308 
   21600    296.03069    20934.131    5708.3377    4753.3078    4845.8963    2934.1712    5430.1134    7645.2486     78.70126    101305.23    37.585839    1.6630039 
   21700    295.06582    20966.868    5618.2854    4776.7701    4780.2254    2993.8833    5426.6577    7693.4185    72.683062    102268.86    37.589805    1.6624777 
   21800    301.14037    20856.724    5516.7501    4768.3777    4670.3054    2954.9307    5462.3951    7692.3348    76.758373    100215.79    37.599891    1.6611402 
   21900    299.62626    20970.691    5540.2454    4779.7227    4705.3916    3002.6112    5507.2115    7676.1542    79.322553    101396.89    37.595192    1.6617631 
   22000     300.5921    20891.911    5594.9942    4784.5073    4767.9975    3007.1426    5385.2512      7656.45     75.07026    99798.402    37.601001    1.6609931 
   22100    298.05206    20932.924     5546.552    4782.7847     4715.748    2972.8971    5456.8639    7705.2192    82.195382    99867.246    37.590506    1.6623846 
   22200    298.43099    20834.485    5560.7907    4750.6661    4698.7499    2889.9543    5475.9618     7694.313    75.506048    100463.45    37.593784    1.6619498 
   22300    300.05957    20664.784    5473.0275    4785.4184    4644.6101    2927.0579    5407.8267    7604.6045     80.68451    98940.775    37.619741    1.6585121 
   22400    303.70201    20812.691    5511.4128    4810.9657    4710.7468    2939.5226    5428.1956    7657.4153     76.81104    100172.49    37.598903    1.6612711 
   22500    304.21688    20908.402    5628.8531    4777.5823    4792.1832    2927.3029    5413.1679    7691.0696     84.67813    101852.37     37.59314    1.6620352 
   22600    303.06738    20853.102    5489.6857    4797.7473    4670.7472    2961.2045     5396.582      7747.51     77.05813    101564.16    37.601098    1.6609802 
   22700    297.96431    20906.889    5557.1945    4775.6931    4717.3144     2988.395    5429.0669    7695.0681    77.044591    100761.48    37.595623    1.6617059 
   22800    297.33625    20853.539    5611.5143    4769.7355    4765.8164    2945.9646     5379.649    7684.2876    77.820805    100080.51    37.594513    1.6618531 
   22900    293.46192    20934.874    5605.4649    4758.7468    4748.8861    2975.3096    5412.7992    7718.6318    79.247041    98763.952    37.596723    1.6615601 
   23000    301.87153    20895.778    5585.2457    4810.5078    4782.8701    2947.8592    5358.4281    7727.5739    79.046426    100625.64    37.584777    1.6631449 
   23100    303.09384    20854.023    5412.4262    4790.7695    4586.8313    2965.8114    5414.4106    7808.1257    78.843883    97213.427    37.599511    1.6611905 
   23200    303.15186    20936.331    5623.3713    4778.4342    4785.8427    2923.5496    5450.4267    7699.9961     76.51586    101979.72    37.586016    1.6629804 
   23300    301.87341    20781.601    5490.3331     4751.248    4626.2255      2984.18    5426.5665    7666.7255    77.903969    100806.29    37.603041    1.6607228 
   23400    300.16857    20760.779    5556.7248    4755.4992    4694.3048    2976.0786     5337.043    7679.1381    74.214191    101461.53    37.599052    1.6612513 
   23500    297.51894    20886.974    5617.7134     4771.342    4772.4915     2964.099    5370.9595    7700.5193    78.904314    100044.55     37.58908    1.6625739 
   23600    300.32548    20908.884    5486.2738    4767.3258    4638.7209     2985.455    5465.7436    7744.5053    74.459212    99644.761    37.587641    1.6627647 
   23700    301.65507    20914.248    5547.7605    4778.2591    4710.1215    2956.8131    5458.4895    7711.5163    77.307735    99679.142    37.594259    1.6618868 
   2380